Si_bulk_icsd_60385                      
    1.0     
     5.43101    0.0        0.0
     0.0        5.43101    0.0
     0.0        0.0        18.79101    
   Si
   10
Cartesian
      0.00000      0.00000      0.00000
      2.71550      2.71550      0.00000
      1.35775      1.35775      1.35775
      4.07326      4.07326      1.35775
      0.00000      2.71550      2.71550
      2.71550      0.00000      2.71550
      1.35775      4.07326      4.07326
      4.07326      1.35775      4.07326
      0.00000      0.00000      5.43101
      2.71550      2.71550      5.43101
