 O Sr Ti 
 1.0000000000000000
     5.5225039610669358    0.0000000000000000    0.0000000000000000
     0.0000000000000000    3.9049999999999998    0.0000000000000000
     0.0000000000000000    0.0000000000000000   29.6643819318671405
   O  Sr  Ti
  12   4   4
Direct
  0.4999999999999999  0.0000000000000000  0.3371046133025087
  0.2499999999999999  0.5000000000000001  0.3836461523589348
  0.7500000000000001  0.5000000000000001  0.3836461523589348
  0.0000000000000000  0.0000000000000000  0.4301876914153609
  0.7499999999999999  0.5000000000000001  0.4767292304717869
  0.2500000000000000  0.5000000000000001  0.4767292304717869
  0.5000000000000002  0.0000000000000000  0.5232707695282129
  0.2500000000000000  0.5000000000000001  0.5698123085846390
  0.7500000000000002  0.5000000000000001  0.5698123085846390
  0.0000000000000000  0.0000000000000000  0.6163538476410650
  0.7500000000000001  0.5000000000000001  0.6628953866974912
  0.2500000000000000  0.5000000000000001  0.6628953866974912
  0.0000000000000000  0.0000000000000000  0.3371046133025088
  0.5000000000000000  0.0000000000000000  0.4301876914153609
  0.0000000000000000  0.0000000000000000  0.5232707695282131
  0.5000000000000002  0.0000000000000000  0.6163538476410650
  0.4999999999999999  0.5000000000000001  0.3371046133025087
  0.0000000000000000  0.5000000000000001  0.4301876914153609
  0.5000000000000002  0.5000000000000001  0.5232707695282129
  0.0000000000000000  0.5000000000000001  0.6163538476410650
