EntryWithCollCode23076
 1.0000000000000000
     3.9049999999999998    0.0000000000000000    0.0000000000000000
     0.0000000000000000    3.9049999999999998    0.0000000000000000
     0.0000000000000000    0.0000000000000000    3.9049999999999998
  Sr  Ti   O
   1   1   3
Direct
  0.0000000000000000  0.0000000000000000  0.0000000000000000
  0.4999999999999999  0.4999999999999999  0.4999999999999999
  0.4999999999999999  0.4999999999999999  0.0000000000000000
  0.4999999999999999  0.0000000000000000  0.4999999999999999
  0.0000000000000000  0.4999999999999999  0.4999999999999999
