 O Sr Ti 
 1.0000000000000000
     5.5816836249207240    0.0000000000000000    0.0000000000000000
     0.0000000000000000    3.9468463416193540    0.0000000000000000
     0.0000000000000000    0.0000000000000000   29.7679463436112712
   O  Sr  Ti
  12   4   4
Direct
  0.5000000000000000  0.0000000000000000  0.3359318068021907
  0.2500000000000000  0.5000000000000000  0.3828084334301362
  0.7500000000000000  0.5000000000000000  0.3828084334301362
  0.0000000000000000  0.0000000000000000  0.4296850600580817
  0.7500000000000000  0.5000000000000000  0.4765616866860272
  0.2500000000000000  0.5000000000000000  0.4765616866860272
  0.5000000000000000  0.0000000000000000  0.5234383133139727
  0.2500000000000000  0.5000000000000000  0.5703149399419183
  0.7499999999999998  0.5000000000000000  0.5703149399419183
  0.9999999999999999  0.0000000000000000  0.6171915665698637
  0.7499999999999998  0.5000000000000000  0.6640681931978093
  0.2500000000000000  0.5000000000000000  0.6640681931978093
  0.0000000000000000  0.0000000000000000  0.3359318068021907
  0.5000000000000000  0.0000000000000000  0.4296850600580817
  0.0000000000000000  0.0000000000000000  0.5234383133139727
  0.5000000000000000  0.0000000000000000  0.6171915665698637
  0.5000000000000000  0.5000000000000000  0.3359318068021907
  0.0000000000000000  0.5000000000000000  0.4296850600580817
  0.5000000000000000  0.5000000000000000  0.5234383133139727
  0.9999999999999999  0.5000000000000000  0.6171915665698637
