Pt_hcp
2.8
1.0	0.0	0.0
-0.5	0.86602540 0.0
0.0	0.0	1.63299316
Pt
2
Direct
0.33333333	0.66666667	0.25
0.66666667	0.33333333	0.75
