Cu  H                                   
   1.00000000000000     
     2.5738686835190334    0.0000000000000000    0.0000000000000000
     1.2869343417595167    2.2290356659326918    0.0000000000000000
     0.0000000000000000    0.0000000000000000   30.3046649395507117
   Cu   H 
     4     1
Direct
 -0.0002934355124419  0.0005868710248838  0.3965671370680738
  0.3331869531653854  0.3336260936692364  0.4651397130960346
  0.6658275706057137  0.6683448587885652  0.5335942646132560
  0.0008007310123673 -0.0016014620247346  0.6042157217893402
  0.5004781807289752 -0.0009563614579507  0.6375027436879541
 
  0.00000000E+00  0.00000000E+00  0.00000000E+00
  0.00000000E+00  0.00000000E+00  0.00000000E+00
  0.00000000E+00  0.00000000E+00  0.00000000E+00
  0.00000000E+00  0.00000000E+00  0.00000000E+00
  0.00000000E+00  0.00000000E+00  0.00000000E+00
