 O Sr Ti                                
   1.00000000000000     
     3.9468463416193540    0.0000000000000000    0.0000000000000000
     0.0000000000000000    3.9468463416193540    0.0000000000000000
     0.0000000000000000    0.0000000000000000   37.8139621956677416
   O    Sr   Ti
    12     4     4
Direct
  0.5000000000000000  0.5000000000000000  0.3173431003581726
  0.5000000000000000  0.0000000000000000  0.3695307859701273
  0.0000000000000000  0.5000000000000000  0.3695307859701273
  0.5000000000000000  0.5000000000000000  0.4217184715820750
  0.5000000000000000  0.0000000000000000  0.4739061571940226
  0.0000000000000000  0.5000000000000000  0.4739061571940226
  0.5000000000000000  0.5000000000000000  0.5260938428059774
  0.5000000000000000  0.0000000000000000  0.5782815284179250
  0.0000000000000000  0.5000000000000000  0.5782815284179250
  0.5000000000000000  0.5000000000000000  0.6304692140298727
  0.5000000000000000  0.0000000000000000  0.6826568996418274
  0.0000000000000000  0.5000000000000000  0.6826568996418274
  0.0000000000000000  0.0000000000000000  0.3173431003581726
  0.0000000000000000  0.0000000000000000  0.4217184715820750
  0.0000000000000000  0.0000000000000000  0.5260938428059774
  0.0000000000000000  0.0000000000000000  0.6304692140298727
  0.5000000000000000  0.5000000000000000  0.3695307859701273
  0.5000000000000000  0.5000000000000000  0.4739061571940226
  0.5000000000000000  0.5000000000000000  0.5782815284179250
  0.5000000000000000  0.5000000000000000  0.6826568996418274
 
  0.00000000E+00  0.00000000E+00  0.00000000E+00
  0.00000000E+00  0.00000000E+00  0.00000000E+00
  0.00000000E+00  0.00000000E+00  0.00000000E+00
  0.00000000E+00  0.00000000E+00  0.00000000E+00
  0.00000000E+00  0.00000000E+00  0.00000000E+00
  0.00000000E+00  0.00000000E+00  0.00000000E+00
  0.00000000E+00  0.00000000E+00  0.00000000E+00
  0.00000000E+00  0.00000000E+00  0.00000000E+00
  0.00000000E+00  0.00000000E+00  0.00000000E+00
  0.00000000E+00  0.00000000E+00  0.00000000E+00
  0.00000000E+00  0.00000000E+00  0.00000000E+00
  0.00000000E+00  0.00000000E+00  0.00000000E+00
  0.00000000E+00  0.00000000E+00  0.00000000E+00
  0.00000000E+00  0.00000000E+00  0.00000000E+00
  0.00000000E+00  0.00000000E+00  0.00000000E+00
  0.00000000E+00  0.00000000E+00  0.00000000E+00
  0.00000000E+00  0.00000000E+00  0.00000000E+00
  0.00000000E+00  0.00000000E+00  0.00000000E+00
  0.00000000E+00  0.00000000E+00  0.00000000E+00
  0.00000000E+00  0.00000000E+00  0.00000000E+00
