 O Sr Ti 
 1.0000000000000000
     3.9468463416193540    0.0000000000000000    0.0000000000000000
     0.0000000000000000    3.9468463416193540    0.0000000000000000
     0.0000000000000000    0.0000000000000000   37.8139621956677416
   O  Sr  Ti
  12   4   4
Direct
  0.5000000000000000  0.5000000000000000  0.3173431003581744
  0.5000000000000000  0.0000000000000000  0.3695307859701246
  0.0000000000000000  0.5000000000000000  0.3695307859701246
  0.5000000000000000  0.5000000000000000  0.4217184715820748
  0.5000000000000000  0.0000000000000000  0.4739061571940250
  0.0000000000000000  0.5000000000000000  0.4739061571940250
  0.5000000000000000  0.5000000000000000  0.5260938428059752
  0.5000000000000000  0.0000000000000000  0.5782815284179252
  0.0000000000000000  0.5000000000000000  0.5782815284179252
  0.5000000000000000  0.5000000000000000  0.6304692140298754
  0.5000000000000000  0.0000000000000000  0.6826568996418256
  0.0000000000000000  0.5000000000000000  0.6826568996418256
  0.0000000000000000  0.0000000000000000  0.3173431003581744
  0.0000000000000000  0.0000000000000000  0.4217184715820748
  0.0000000000000000  0.0000000000000000  0.5260938428059752
  0.0000000000000000  0.0000000000000000  0.6304692140298754
  0.5000000000000000  0.5000000000000000  0.3695307859701246
  0.5000000000000000  0.5000000000000000  0.4739061571940250
  0.5000000000000000  0.5000000000000000  0.5782815284179252
  0.5000000000000000  0.5000000000000000  0.6826568996418256
