Cu-slab111-4layers-a=3.64
1.0
2.229036     -1.286934     0.000000
2.229036     1.286934     0.000000
0.000000     0.000000     23.406220
Cu          
4          
Cartesian          
0.000000     0.000000     0.000000
1.486024     0.000000     2.101555
2.972048     0.000000     4.203110
0.000000     0.000000     6.304665
