Si_bulk_icsd_60385                      
   1.00000000000000     
     5.4310099999999997    0.0000000000000000    0.0000000000000000
     0.0000000000000000    5.4310099999999997    0.0000000000000000
     0.0000000000000000    0.0000000000000000   10.7910100000000000
   Si
    10
Direct
  0.0000000000000000  0.0000000000000000  0.0000000000000000
  0.4999990793609257  0.4999990793609257  0.0000000000000000
  0.2499995396804664  0.2499995396804664  0.1258223280304591
  0.7500004603195336  0.7500004603195336  0.1258223280304591
  0.0000000000000000  0.4999990793609257  0.2516446560609253
  0.4999990793609257  0.0000000000000000  0.2516446560609253
  0.2499995396804664  0.7500004603195336  0.3774679107887025
  0.7500004603195336  0.2499995396804664  0.3774679107887025
  0.0000000000000000  0.0000000000000000  0.5032902388191687
  0.4999990793609257  0.4999990793609257  0.5032902388191687
 
  0.00000000E+00  0.00000000E+00  0.00000000E+00
  0.00000000E+00  0.00000000E+00  0.00000000E+00
  0.00000000E+00  0.00000000E+00  0.00000000E+00
  0.00000000E+00  0.00000000E+00  0.00000000E+00
  0.00000000E+00  0.00000000E+00  0.00000000E+00
  0.00000000E+00  0.00000000E+00  0.00000000E+00
  0.00000000E+00  0.00000000E+00  0.00000000E+00
  0.00000000E+00  0.00000000E+00  0.00000000E+00
  0.00000000E+00  0.00000000E+00  0.00000000E+00
  0.00000000E+00  0.00000000E+00  0.00000000E+00
