Graphene-2x2                                     
   1.00000000000000     
     4.9364084627566092    0.0000000000000000    0.0000000000000000
    -2.4682042313783046    4.2750551322105448    0.0000000000000000
     0.0000000000000000    0.0000000000000000   15.0
   C 
     8
Direct
  0.1666666666666667  0.3333333333333333  0.5000000000000000
  0.1666666666666667  0.8333333333333333  0.5000000000000000
  0.6666666666666667  0.3333333333333333  0.5000000000000000
  0.6666666666666667  0.8333333333333333  0.5000000000000000
  0.3333333333333333  0.1666666666666667  0.5000000000000000
  0.3333333333333333  0.6666666666666667  0.5000000000000000
  0.8333333333333333  0.1666666666666667  0.5000000000000000
  0.8333333333333333  0.6666666666666667  0.5000000000000000
