 O Sr Ti                                
   1.00000000000000     
     3.9468463416193540    0.0000000000000000    0.0000000000000000
     0.0000000000000000    3.9468463416193540    0.0000000000000000
     0.0000000000000000    0.0000000000000000   27.8139621956677381
   O    Sr   Ti
    12     4     4
Direct
  0.5000000000000000  0.5000000000000000  0.2516721620154598
  0.5000000000000000  0.0000000000000000  0.3226229728681886
  0.0000000000000000  0.5000000000000000  0.3226229728681886
  0.5000000000000000  0.5000000000000000  0.3935737837209103
  0.5000000000000000  0.0000000000000000  0.4645245945736391
  0.0000000000000000  0.5000000000000000  0.4645245945736391
  0.5000000000000000  0.5000000000000000  0.5354754054263609
  0.5000000000000000  0.0000000000000000  0.6064262162790897
  0.0000000000000000  0.5000000000000000  0.6064262162790897
  0.5000000000000000  0.5000000000000000  0.6773770271318114
  0.5000000000000000  0.0000000000000000  0.7483278379845402
  0.0000000000000000  0.5000000000000000  0.7483278379845402
  0.0000000000000000  0.0000000000000000  0.2516721620154598
  0.0000000000000000  0.0000000000000000  0.3935737837209103
  0.0000000000000000  0.0000000000000000  0.5354754054263609
  0.0000000000000000  0.0000000000000000  0.6773770271318114
  0.5000000000000000  0.5000000000000000  0.3226229728681886
  0.5000000000000000  0.5000000000000000  0.4645245945736391
  0.5000000000000000  0.5000000000000000  0.6064262162790897
  0.5000000000000000  0.5000000000000000  0.7483278379845402
 
  0.00000000E+00  0.00000000E+00  0.00000000E+00
  0.00000000E+00  0.00000000E+00  0.00000000E+00
  0.00000000E+00  0.00000000E+00  0.00000000E+00
  0.00000000E+00  0.00000000E+00  0.00000000E+00
  0.00000000E+00  0.00000000E+00  0.00000000E+00
  0.00000000E+00  0.00000000E+00  0.00000000E+00
  0.00000000E+00  0.00000000E+00  0.00000000E+00
  0.00000000E+00  0.00000000E+00  0.00000000E+00
  0.00000000E+00  0.00000000E+00  0.00000000E+00
  0.00000000E+00  0.00000000E+00  0.00000000E+00
  0.00000000E+00  0.00000000E+00  0.00000000E+00
  0.00000000E+00  0.00000000E+00  0.00000000E+00
  0.00000000E+00  0.00000000E+00  0.00000000E+00
  0.00000000E+00  0.00000000E+00  0.00000000E+00
  0.00000000E+00  0.00000000E+00  0.00000000E+00
  0.00000000E+00  0.00000000E+00  0.00000000E+00
  0.00000000E+00  0.00000000E+00  0.00000000E+00
  0.00000000E+00  0.00000000E+00  0.00000000E+00
  0.00000000E+00  0.00000000E+00  0.00000000E+00
  0.00000000E+00  0.00000000E+00  0.00000000E+00
