 O Sr Ti 
 1.0000000000000000
     3.9468463416193540    0.0000000000000000    0.0000000000000000
     0.0000000000000000    3.9468463416193540    0.0000000000000000
     0.0000000000000000    0.0000000000000000   27.8139621956677381
   O  Sr  Ti
  12   4   4
Direct
  0.5000000000000000  0.5000000000000000  0.2516721620154611
  0.5000000000000000  0.0000000000000000  0.3226229728681865
  0.0000000000000000  0.5000000000000000  0.3226229728681865
  0.5000000000000000  0.5000000000000000  0.3935737837209119
  0.5000000000000000  0.0000000000000000  0.4645245945736373
  0.0000000000000000  0.5000000000000000  0.4645245945736373
  0.5000000000000000  0.5000000000000000  0.5354754054263627
  0.5000000000000000  0.0000000000000000  0.6064262162790882
  0.0000000000000000  0.5000000000000000  0.6064262162790882
  0.5000000000000000  0.5000000000000000  0.6773770271318135
  0.5000000000000000  0.0000000000000000  0.7483278379845389
  0.0000000000000000  0.5000000000000000  0.7483278379845389
  0.0000000000000000  0.0000000000000000  0.2516721620154611
  0.0000000000000000  0.0000000000000000  0.3935737837209119
  0.0000000000000000  0.0000000000000000  0.5354754054263627
  0.0000000000000000  0.0000000000000000  0.6773770271318135
  0.5000000000000000  0.5000000000000000  0.3226229728681865
  0.5000000000000000  0.5000000000000000  0.4645245945736373
  0.5000000000000000  0.5000000000000000  0.6064262162790882
  0.5000000000000000  0.5000000000000000  0.7483278379845389
