Ni6 O8
1.0
5.931218 0.000000 0.000000
0.000000 8.190323 0.000000
0.000000 0.000000 2.870761
Ni O
6 8
direct
0.750000 0.750000 0.000000 Ni
0.250000 0.750000 0.000000 Ni
0.500000 0.000000 0.500000 Ni
0.250000 0.250000 0.000000 Ni
0.750000 0.250000 0.000000 Ni
0.000000 0.500000 0.500000 Ni
0.207590 0.500000 0.000000 O
0.292410 0.000000 0.000000 O
0.000000 0.729400 0.500000 O
0.500000 0.770600 0.500000 O
0.707590 0.000000 0.000000 O
0.792410 0.500000 0.000000 O
0.500000 0.229400 0.500000 O
0.000000 0.270600 0.500000 O
