 O Sr Ti                                
   1.00000000000000     
     3.9468463416193540    0.0000000000000000    0.0000000000000000
     0.0000000000000000    3.9468463416193540    0.0000000000000000
     0.0000000000000000    0.0000000000000000   35.8139621956677416
   O    Sr   Ti
    12     4     4
Direct
  0.5000000000000000  0.5000000000000000  0.3071427824685244
  0.5000000000000000  0.0000000000000000  0.3622448446203776
  0.0000000000000000  0.5000000000000000  0.3622448446203776
  0.5000000000000000  0.5000000000000000  0.4173469067722237
  0.5000000000000000  0.0000000000000000  0.4724489689240770
  0.0000000000000000  0.5000000000000000  0.4724489689240770
  0.5000000000000000  0.5000000000000000  0.5275510310759230
  0.5000000000000000  0.0000000000000000  0.5826530932277763
  0.0000000000000000  0.5000000000000000  0.5826530932277763
  0.5000000000000000  0.5000000000000000  0.6377551553796224
  0.5000000000000000  0.0000000000000000  0.6928572175314756
  0.0000000000000000  0.5000000000000000  0.6928572175314756
  0.0000000000000000  0.0000000000000000  0.3071427824685244
  0.0000000000000000  0.0000000000000000  0.4173469067722237
  0.0000000000000000  0.0000000000000000  0.5275510310759230
  0.0000000000000000  0.0000000000000000  0.6377551553796224
  0.5000000000000000  0.5000000000000000  0.3622448446203776
  0.5000000000000000  0.5000000000000000  0.4724489689240770
  0.5000000000000000  0.5000000000000000  0.5826530932277763
  0.5000000000000000  0.5000000000000000  0.6928572175314756
 
  0.00000000E+00  0.00000000E+00  0.00000000E+00
  0.00000000E+00  0.00000000E+00  0.00000000E+00
  0.00000000E+00  0.00000000E+00  0.00000000E+00
  0.00000000E+00  0.00000000E+00  0.00000000E+00
  0.00000000E+00  0.00000000E+00  0.00000000E+00
  0.00000000E+00  0.00000000E+00  0.00000000E+00
  0.00000000E+00  0.00000000E+00  0.00000000E+00
  0.00000000E+00  0.00000000E+00  0.00000000E+00
  0.00000000E+00  0.00000000E+00  0.00000000E+00
  0.00000000E+00  0.00000000E+00  0.00000000E+00
  0.00000000E+00  0.00000000E+00  0.00000000E+00
  0.00000000E+00  0.00000000E+00  0.00000000E+00
  0.00000000E+00  0.00000000E+00  0.00000000E+00
  0.00000000E+00  0.00000000E+00  0.00000000E+00
  0.00000000E+00  0.00000000E+00  0.00000000E+00
  0.00000000E+00  0.00000000E+00  0.00000000E+00
  0.00000000E+00  0.00000000E+00  0.00000000E+00
  0.00000000E+00  0.00000000E+00  0.00000000E+00
  0.00000000E+00  0.00000000E+00  0.00000000E+00
  0.00000000E+00  0.00000000E+00  0.00000000E+00
