 O Sr Ti 
 1.0000000000000000
     3.9468463416193540    0.0000000000000000    0.0000000000000000
     0.0000000000000000    3.9468463416193540    0.0000000000000000
     0.0000000000000000    0.0000000000000000   35.8139621956677416
   O  Sr  Ti
  12   4   4
Direct
  0.5000000000000000  0.5000000000000000  0.3071427824685263
  0.5000000000000000  0.0000000000000000  0.3622448446203759
  0.0000000000000000  0.5000000000000000  0.3622448446203759
  0.5000000000000000  0.5000000000000000  0.4173469067722256
  0.5000000000000000  0.0000000000000000  0.4724489689240752
  0.0000000000000000  0.5000000000000000  0.4724489689240752
  0.5000000000000000  0.5000000000000000  0.5275510310759248
  0.5000000000000000  0.0000000000000000  0.5826530932277745
  0.0000000000000000  0.5000000000000000  0.5826530932277745
  0.5000000000000000  0.5000000000000000  0.6377551553796241
  0.5000000000000000  0.0000000000000000  0.6928572175314738
  0.0000000000000000  0.5000000000000000  0.6928572175314738
  0.0000000000000000  0.0000000000000000  0.3071427824685263
  0.0000000000000000  0.0000000000000000  0.4173469067722256
  0.0000000000000000  0.0000000000000000  0.5275510310759248
  0.0000000000000000  0.0000000000000000  0.6377551553796241
  0.5000000000000000  0.5000000000000000  0.3622448446203759
  0.5000000000000000  0.5000000000000000  0.4724489689240752
  0.5000000000000000  0.5000000000000000  0.5826530932277745
  0.5000000000000000  0.5000000000000000  0.6928572175314738
