POSCAR
 1.0000000000000000
     8.4420999999999999    0.0000000000000000    0.0000000000000000
     0.0000000000000000    8.4420999999999999    0.0000000000000000
     0.0000000000000000    0.0000000000000000    8.4420999999999999
  Zn  Fe   O
   8  16  32
Direct
  0.1250000000000000  0.1250000000000000  0.1250000000000000
  0.8750000000000000  0.8750000000000000  0.8750000000000000
  0.6250000000000000  0.1250000000000000  0.6250000000000000
  0.3750000000000000  0.8750000000000000  0.3750000000000000
  0.1250000000000000  0.6250000000000000  0.6250000000000000
  0.8750000000000000  0.3750000000000000  0.3750000000000000
  0.6250000000000000  0.6250000000000000  0.1250000000000000
  0.3750000000000000  0.3750000000000000  0.8750000000000000
  0.5000000000000000  0.5000000000000000  0.5000000000000000
  0.2500000000000000  0.7500000000000000  0.0000000000000000
  0.7500000000000000  0.2500000000000000  0.0000000000000000
  0.7500000000000000  0.0000000000000000  0.2500000000000000
  0.2500000000000000  0.0000000000000000  0.7500000000000000
  0.0000000000000000  0.2500000000000000  0.7500000000000000
  0.0000000000000000  0.7500000000000000  0.2500000000000000
  0.5000000000000000  0.0000000000000000  0.0000000000000000
  0.2500000000000000  0.2500000000000000  0.5000000000000000
  0.7500000000000000  0.7500000000000000  0.5000000000000000
  0.7500000000000000  0.5000000000000000  0.7500000000000000
  0.2500000000000000  0.5000000000000000  0.2500000000000000
  0.0000000000000000  0.5000000000000000  0.0000000000000000
  0.5000000000000000  0.2500000000000000  0.2500000000000000
  0.5000000000000000  0.7500000000000000  0.7500000000000000
  0.0000000000000000  0.0000000000000000  0.5000000000000000
  0.2595000000000000  0.2595000000000000  0.2595000000000000
  0.7404999999999999  0.7404999999999999  0.7404999999999999
  0.4905000000000000  0.9904999999999999  0.7595000000000001
  0.5095000000000001  0.0095000000000001  0.2405000000000000
  0.9904999999999999  0.7595000000000001  0.4905000000000000
  0.0095000000000001  0.2405000000000000  0.5095000000000001
  0.7595000000000001  0.4905000000000000  0.9904999999999999
  0.2405000000000000  0.5095000000000001  0.0095000000000001
  0.0095000000000001  0.5095000000000001  0.2405000000000000
  0.9904999999999999  0.4905000000000000  0.7595000000000001
  0.5095000000000001  0.2405000000000000  0.0095000000000001
  0.4905000000000000  0.7595000000000001  0.9904999999999999
  0.2405000000000000  0.0095000000000001  0.5095000000000001
  0.7595000000000001  0.9904999999999999  0.4905000000000000
  0.2595000000000000  0.7595000000000001  0.7595000000000001
  0.7404999999999999  0.2405000000000000  0.2405000000000000
  0.4905000000000000  0.4905000000000000  0.2595000000000000
  0.5095000000000001  0.5095000000000001  0.7404999999999999
  0.9904999999999999  0.2595000000000000  0.9904999999999999
  0.0095000000000001  0.7404999999999999  0.0095000000000001
  0.0095000000000001  0.0095000000000001  0.7404999999999999
  0.9904999999999999  0.9904999999999999  0.2595000000000000
  0.5095000000000001  0.7404999999999999  0.5095000000000001
  0.4905000000000000  0.2595000000000000  0.4905000000000000
  0.7595000000000001  0.2595000000000000  0.7595000000000001
  0.2405000000000000  0.7404999999999999  0.2405000000000000
  0.2595000000000000  0.4905000000000000  0.4905000000000000
  0.7404999999999999  0.5095000000000001  0.5095000000000001
  0.7404999999999999  0.0095000000000001  0.0095000000000001
  0.2595000000000000  0.9904999999999999  0.9904999999999999
  0.7595000000000001  0.7595000000000001  0.2595000000000000
  0.2405000000000000  0.2405000000000000  0.7404999999999999
