 O Sr Ti                                
   1.00000000000000     
     3.9468463416193540    0.0000000000000000    0.0000000000000000
     0.0000000000000000    3.9468463416193540    0.0000000000000000
     0.0000000000000000    0.0000000000000000   33.8139621956677416
   O    Sr   Ti
    12     4     4
Direct
  0.5000000000000000  0.5000000000000000  0.2957358248091140
  0.5000000000000000  0.0000000000000000  0.3540970177207967
  0.0000000000000000  0.5000000000000000  0.3540970177207967
  0.5000000000000000  0.5000000000000000  0.4124582106324794
  0.5000000000000000  0.0000000000000000  0.4708194035441622
  0.0000000000000000  0.5000000000000000  0.4708194035441622
  0.5000000000000000  0.5000000000000000  0.5291805964558378
  0.5000000000000000  0.0000000000000000  0.5875417893675206
  0.0000000000000000  0.5000000000000000  0.5875417893675206
  0.5000000000000000  0.5000000000000000  0.6459029822792033
  0.5000000000000000  0.0000000000000000  0.7042641751908860
  0.0000000000000000  0.5000000000000000  0.7042641751908860
  0.0000000000000000  0.0000000000000000  0.2957358248091140
  0.0000000000000000  0.0000000000000000  0.4124582106324794
  0.0000000000000000  0.0000000000000000  0.5291805964558378
  0.0000000000000000  0.0000000000000000  0.6459029822792033
  0.5000000000000000  0.5000000000000000  0.3540970177207967
  0.5000000000000000  0.5000000000000000  0.4708194035441622
  0.5000000000000000  0.5000000000000000  0.5875417893675206
  0.5000000000000000  0.5000000000000000  0.7042641751908860
 
  0.00000000E+00  0.00000000E+00  0.00000000E+00
  0.00000000E+00  0.00000000E+00  0.00000000E+00
  0.00000000E+00  0.00000000E+00  0.00000000E+00
  0.00000000E+00  0.00000000E+00  0.00000000E+00
  0.00000000E+00  0.00000000E+00  0.00000000E+00
  0.00000000E+00  0.00000000E+00  0.00000000E+00
  0.00000000E+00  0.00000000E+00  0.00000000E+00
  0.00000000E+00  0.00000000E+00  0.00000000E+00
  0.00000000E+00  0.00000000E+00  0.00000000E+00
  0.00000000E+00  0.00000000E+00  0.00000000E+00
  0.00000000E+00  0.00000000E+00  0.00000000E+00
  0.00000000E+00  0.00000000E+00  0.00000000E+00
  0.00000000E+00  0.00000000E+00  0.00000000E+00
  0.00000000E+00  0.00000000E+00  0.00000000E+00
  0.00000000E+00  0.00000000E+00  0.00000000E+00
  0.00000000E+00  0.00000000E+00  0.00000000E+00
  0.00000000E+00  0.00000000E+00  0.00000000E+00
  0.00000000E+00  0.00000000E+00  0.00000000E+00
  0.00000000E+00  0.00000000E+00  0.00000000E+00
  0.00000000E+00  0.00000000E+00  0.00000000E+00
