 O Sr Ti 
 1.0000000000000000
     3.9468463416193540    0.0000000000000000    0.0000000000000000
     0.0000000000000000    3.9468463416193540    0.0000000000000000
     0.0000000000000000    0.0000000000000000   33.8139621956677416
   O  Sr  Ti
  12   4   4
Direct
  0.5000000000000000  0.5000000000000000  0.2957358248091141
  0.5000000000000000  0.0000000000000000  0.3540970177207958
  0.0000000000000000  0.5000000000000000  0.3540970177207958
  0.5000000000000000  0.5000000000000000  0.4124582106324775
  0.5000000000000000  0.0000000000000000  0.4708194035441592
  0.0000000000000000  0.5000000000000000  0.4708194035441592
  0.5000000000000000  0.5000000000000000  0.5291805964558409
  0.5000000000000000  0.0000000000000000  0.5875417893675225
  0.0000000000000000  0.5000000000000000  0.5875417893675225
  0.5000000000000000  0.5000000000000000  0.6459029822792043
  0.5000000000000000  0.0000000000000000  0.7042641751908860
  0.0000000000000000  0.5000000000000000  0.7042641751908860
  0.0000000000000000  0.0000000000000000  0.2957358248091141
  0.0000000000000000  0.0000000000000000  0.4124582106324775
  0.0000000000000000  0.0000000000000000  0.5291805964558409
  0.0000000000000000  0.0000000000000000  0.6459029822792043
  0.5000000000000000  0.5000000000000000  0.3540970177207958
  0.5000000000000000  0.5000000000000000  0.4708194035441592
  0.5000000000000000  0.5000000000000000  0.5875417893675225
  0.5000000000000000  0.5000000000000000  0.7042641751908860
