Mn4Si7_mp-680339_primitive
 1.0000000000000000
     5.5031287600000001    0.0000000000000000    0.0000000000000000
     0.0000000000000000    5.5031287600000001    0.0000000000000000
     0.0000000000000000    0.0000000000000000   17.3585573400000008
  Mn  Si
  16  28
Direct
  0.0000000000000000  0.0000000000000000  0.2500000000000000
  0.4999999999999999  0.0000000000000000  0.8083070000000000
  0.0000000000000000  0.4999999999999999  0.6916930000000000
  0.4999999999999999  0.4999999999999999  0.3699020000000000
  0.0000000000000000  0.0000000000000000  0.0000000000000000
  0.4999999999999999  0.4999999999999999  0.1300980000000000
  0.0000000000000000  0.4999999999999999  0.4349880000000000
  0.0000000000000000  0.0000000000000000  0.7500000000000000
  0.0000000000000000  0.4999999999999999  0.9349879999999999
  0.4999999999999999  0.4999999999999999  0.6300980000000000
  0.4999999999999999  0.0000000000000000  0.0650120000000000
  0.4999999999999999  0.0000000000000000  0.3083070000000000
  0.0000000000000000  0.0000000000000000  0.5000000000000000
  0.0000000000000000  0.4999999999999999  0.1916930000000000
  0.4999999999999999  0.0000000000000000  0.5650120000000000
  0.4999999999999999  0.4999999999999999  0.8699020000000000
  0.1556150000000000  0.8009060000000000  0.1128870000000000
  0.6535810000000000  0.7704790000000000  0.4609200000000000
  0.8443849999999999  0.8009060000000000  0.6128870000000000
  0.7704790000000000  0.3464189999999999  0.5390800000000000
  0.8411729999999999  0.6787120000000000  0.3174450000000000
  0.6535810000000000  0.2295210000000000  0.9609200000000000
  0.1588270000000000  0.6787120000000000  0.8174450000000000
  0.3212880000000000  0.1588270000000000  0.1825550000000000
  0.7704790000000000  0.6535810000000000  0.0390800000000000
  0.1990940000000000  0.1556150000000000  0.8871130000000000
  0.6661450000000000  0.6661450000000000  0.7500000000000000
  0.3464189999999999  0.7704790000000000  0.9609200000000000
  0.6787120000000000  0.1588270000000000  0.6825550000000000
  0.6661450000000000  0.3338550000000000  0.2500000000000000
  0.1588270000000000  0.3212880000000000  0.3174450000000000
  0.2295210000000000  0.6535810000000000  0.5390800000000000
  0.6787120000000000  0.8411729999999999  0.1825550000000000
  0.1990940000000000  0.8443849999999999  0.3871130000000000
  0.8009060000000000  0.8443849999999999  0.8871130000000000
  0.8443849999999999  0.1990940000000000  0.1128870000000000
  0.3212880000000000  0.8411729999999999  0.6825550000000000
  0.3464189999999999  0.2295210000000000  0.4609200000000000
  0.1556150000000000  0.1990940000000000  0.6128870000000000
  0.8009060000000000  0.1556150000000000  0.3871130000000000
  0.8411729999999999  0.3212880000000000  0.8174450000000000
  0.3338550000000000  0.6661450000000000  0.2500000000000000
  0.3338550000000000  0.3338550000000000  0.7500000000000000
  0.2295210000000000  0.3464189999999999  0.0390800000000000
