TiO2_rutile
    1.0     
    4.5929  0.0  0.0
    0.0  4.5929  0.0
    0.0  0.0  2.9591 
   Ti O
   2  4
Direct
 0.50000	 0.50000	 0.50000
 0.00000	 0.00000	 0.00000
 0.69440	 0.69440	 0.00000
 0.30560	 0.30560	 0.00000
 0.19440	 0.80560	 0.50000
 0.80560	 0.19440	 0.50000
