INCAR for high-accuracy total energy calculation.

! Electronic relaxation
ALGO   = Damped      ! Algorithm for electronic relaxation
NELMIN = 4         ! Minimum # of electronic steps
NELM   = 300       ! Maximum # of electronic steps
EDIFF  = 1E-6      ! Accuracy for electronic groundstate
ENCUT  = 500       ! Cut-off energy for plane wave expansion
PREC   = Accurate    ! Low/Normal/Accurate
LREAL  = Auto      ! Projection in reciprocal space?
ISMEAR = 0         ! Smearing of partial occupancies.
SIGMA  = 0.02       ! Smearing width
ISPIN  = 2         ! Spin polarization?
LHFCALC = .TRUE.
HFSCREEN = 0.2
TIME = 0.4
SYMPREC = 1E-4

! Ionic relaxation
NSW    = 0         ! Final high-accuracy calculation without relaxation

! Output options
LWAVE  = .FALSE.   ! Write WAVECAR?
NEDOS  = 2801      ! Number of grid points for DOS
EMIN   = -10        ! Minimum energy for evaluation of DOS
EMAX   =  18       ! Maximum energy for evaluation of DOS
LELF   = .TRUE.    ! Electron localization function
LORBIT = 11        ! Write LDOS to DOSCAR + PROCAR

! Memory handling
NPAR    = 16
