c-nanotube-10-0
    1.0     
    18.0        0.0     0.0
     0.0       18.0     0.0
     0.0        0.0     4.263
   C
   40
Cartesian
    3.929290     0.000000    -0.712694
    3.929290     0.000000    -2.133694
    3.736976     1.214217     1.421000
    3.736976     1.214217     0.000000
    3.178862     2.309578    -0.712694
    3.178862     2.309578    -2.133694
    2.309578     3.178862     1.421000
    2.309578     3.178862     0.000000
    1.214217     3.736976    -0.712694
    1.214217     3.736976    -2.133694
   -0.000000     3.929290     1.421000
   -0.000000     3.929290    -0.000000
   -1.214217     3.736976    -0.712694
   -1.214217     3.736976    -2.133694
   -2.309578     3.178862     1.421000
   -2.309578     3.178862    -0.000000
   -3.178862     2.309578    -0.712694
   -3.178862     2.309578    -2.133694
   -3.736976     1.214217     1.421000
   -3.736976     1.214217    -0.000000
   -3.929290    -0.000000    -0.712694
   -3.929290    -0.000000    -2.133694
   -3.736976    -1.214217     1.421000
   -3.736976    -1.214217     0.000000
   -3.178862    -2.309578    -0.712694
   -3.178862    -2.309578    -2.133694
   -2.309578    -3.178862     1.421000
   -2.309578    -3.178862    -0.000000
   -1.214217    -3.736976    -0.712694
   -1.214217    -3.736976    -2.133694
    0.000000    -3.929290     1.421000
    0.000000    -3.929290     0.000000
    1.214217    -3.736976    -0.712694
    1.214217    -3.736976    -2.133694
    2.309578    -3.178862     1.421000
    2.309578    -3.178862     0.000000
    3.178862    -2.309578    -0.712694
    3.178862    -2.309578    -2.133694
    3.736976    -1.214217     1.421000
    3.736976    -1.214217    -0.000000
