 O Sr Ti                                
   1.00000000000000     
     3.9468463416193540    0.0000000000000000    0.0000000000000000
     0.0000000000000000    3.9468463416193540    0.0000000000000000
     0.0000000000000000    0.0000000000000000   17.8139621956677381
   O    Sr   Ti
    12     4     4
Direct
  0.5000000000000000  0.5000000000000000  0.1122714855927072
  0.5000000000000000  0.0000000000000000  0.2230510611376531
  0.0000000000000000  0.5000000000000000  0.2230510611376531
  0.5000000000000000  0.5000000000000000  0.3338306366825918
  0.5000000000000000  0.0000000000000000  0.4446102122275306
  0.0000000000000000  0.5000000000000000  0.4446102122275306
  0.5000000000000000  0.5000000000000000  0.5553897877724694
  0.5000000000000000  0.0000000000000000  0.6661693633174082
  0.0000000000000000  0.5000000000000000  0.6661693633174082
  0.5000000000000000  0.5000000000000000  0.7769489388623469
  0.5000000000000000  0.0000000000000000  0.8877285144072928
  0.0000000000000000  0.5000000000000000  0.8877285144072928
  0.0000000000000000  0.0000000000000000  0.1122714855927072
  0.0000000000000000  0.0000000000000000  0.3338306366825918
  0.0000000000000000  0.0000000000000000  0.5553897877724694
  0.0000000000000000  0.0000000000000000  0.7769489388623469
  0.5000000000000000  0.5000000000000000  0.2230510611376531
  0.5000000000000000  0.5000000000000000  0.4446102122275306
  0.5000000000000000  0.5000000000000000  0.6661693633174082
  0.5000000000000000  0.5000000000000000  0.8877285144072928
 
  0.00000000E+00  0.00000000E+00  0.00000000E+00
  0.00000000E+00  0.00000000E+00  0.00000000E+00
  0.00000000E+00  0.00000000E+00  0.00000000E+00
  0.00000000E+00  0.00000000E+00  0.00000000E+00
  0.00000000E+00  0.00000000E+00  0.00000000E+00
  0.00000000E+00  0.00000000E+00  0.00000000E+00
  0.00000000E+00  0.00000000E+00  0.00000000E+00
  0.00000000E+00  0.00000000E+00  0.00000000E+00
  0.00000000E+00  0.00000000E+00  0.00000000E+00
  0.00000000E+00  0.00000000E+00  0.00000000E+00
  0.00000000E+00  0.00000000E+00  0.00000000E+00
  0.00000000E+00  0.00000000E+00  0.00000000E+00
  0.00000000E+00  0.00000000E+00  0.00000000E+00
  0.00000000E+00  0.00000000E+00  0.00000000E+00
  0.00000000E+00  0.00000000E+00  0.00000000E+00
  0.00000000E+00  0.00000000E+00  0.00000000E+00
  0.00000000E+00  0.00000000E+00  0.00000000E+00
  0.00000000E+00  0.00000000E+00  0.00000000E+00
  0.00000000E+00  0.00000000E+00  0.00000000E+00
  0.00000000E+00  0.00000000E+00  0.00000000E+00
