 O Sr Ti 
 1.0000000000000000
     3.9468463416193540    0.0000000000000000    0.0000000000000000
     0.0000000000000000    3.9468463416193540    0.0000000000000000
     0.0000000000000000    0.0000000000000000   17.8139621956677381
   O  Sr  Ti
  12   4   4
Direct
  0.5000000000000000  0.5000000000000000  0.1122714855927105
  0.5000000000000000  0.0000000000000000  0.2230510611376504
  0.0000000000000000  0.5000000000000000  0.2230510611376504
  0.5000000000000000  0.5000000000000000  0.3338306366825902
  0.5000000000000000  0.0000000000000000  0.4446102122275301
  0.0000000000000000  0.5000000000000000  0.4446102122275301
  0.5000000000000000  0.5000000000000000  0.5553897877724699
  0.5000000000000000  0.0000000000000000  0.6661693633174098
  0.0000000000000000  0.5000000000000000  0.6661693633174098
  0.5000000000000000  0.5000000000000000  0.7769489388623497
  0.5000000000000000  0.0000000000000000  0.8877285144072895
  0.0000000000000000  0.5000000000000000  0.8877285144072895
  0.0000000000000000  0.0000000000000000  0.1122714855927105
  0.0000000000000000  0.0000000000000000  0.3338306366825902
  0.0000000000000000  0.0000000000000000  0.5553897877724699
  0.0000000000000000  0.0000000000000000  0.7769489388623497
  0.5000000000000000  0.5000000000000000  0.2230510611376504
  0.5000000000000000  0.5000000000000000  0.4446102122275301
  0.5000000000000000  0.5000000000000000  0.6661693633174098
  0.5000000000000000  0.5000000000000000  0.8877285144072895
