 C Si 
 1.0000000000000000
     2.1739999999999999    2.1739999999999999    0.0000000000000000
     0.0000000000000000    2.1739999999999999    2.1739999999999999
     2.1739999999999999    0.0000000000000000    2.1739999999999999
   C  Si
   1   1
Direct
  0.2500000000000000  0.2500000000000000  0.2500000000000000
  0.0000000000000000  0.0000000000000000  0.0000000000000000
