SiC-3C
1.0
  4.348000  0.000000  0.000000
  0.000000  4.348000  0.000000
  0.000000  0.000000  4.348000
  Si C
  4  4
Direct
 0.50      0.00      0.50
 0.00      0.50      0.50
 0.00      0.00      0.00
 0.50      0.50      0.00
 0.75      0.25      0.75
 0.25      0.75      0.75
 0.25      0.25      0.25
 0.75      0.75      0.25
