Si_bulk_icsd_60385                      
   1.00000000000000     
    17.4310100000000006    0.0000000000000000    0.0000000000000000
     0.0000000000000000   17.4310100000000006    0.0000000000000000
     0.0000000000000000    0.0000000000000000   17.4310100000000006
   Si
    14
Direct
  0.0000000000000000  0.0000000000000000  0.0000000000000000
  0.1557855798373140  0.1557855798373140  0.0000000000000000
  0.0778927899186570  0.0778927899186570  0.0778927899186570
  0.2336789434461934  0.2336789434461934  0.0778927899186570
  0.0000000000000000  0.1557855798373140  0.1557855798373140
  0.1557855798373140  0.0000000000000000  0.1557855798373140
  0.0778927899186570  0.2336789434461934  0.2336789434461934
  0.2336789434461934  0.0778927899186570  0.2336789434461934
  0.1557855798373140  0.1557855798373140  0.3115717333648504
  0.1557855798373140  0.3115717333648504  0.1557855798373140
  0.0000000000000000  0.3115717333648504  0.3115717333648504
  0.3115717333648504  0.1557855798373140  0.1557855798373140
  0.3115717333648504  0.0000000000000000  0.3115717333648504
  0.3115717333648504  0.3115717333648504  0.0000000000000000
 
  0.00000000E+00  0.00000000E+00  0.00000000E+00
  0.00000000E+00  0.00000000E+00  0.00000000E+00
  0.00000000E+00  0.00000000E+00  0.00000000E+00
  0.00000000E+00  0.00000000E+00  0.00000000E+00
  0.00000000E+00  0.00000000E+00  0.00000000E+00
  0.00000000E+00  0.00000000E+00  0.00000000E+00
  0.00000000E+00  0.00000000E+00  0.00000000E+00
  0.00000000E+00  0.00000000E+00  0.00000000E+00
  0.00000000E+00  0.00000000E+00  0.00000000E+00
  0.00000000E+00  0.00000000E+00  0.00000000E+00
  0.00000000E+00  0.00000000E+00  0.00000000E+00
  0.00000000E+00  0.00000000E+00  0.00000000E+00
  0.00000000E+00  0.00000000E+00  0.00000000E+00
  0.00000000E+00  0.00000000E+00  0.00000000E+00
