Pt_hcp                                  
   2.80000000000000     
     0.9875552246759917    0.0000000000000000    0.0000000000000000
    -0.4937776123379957    0.8552479085815529    0.0000000000000000
     0.0000000000000000    0.0000000000000000    1.7089674724767936
   Pt
     2
Direct
  0.3333333300000021  0.6666666699999979  0.2500000000000000
  0.6666666699999979  0.3333333300000021  0.7500000000000000
 
  0.00000000E+00  0.00000000E+00  0.00000000E+00
  0.00000000E+00  0.00000000E+00  0.00000000E+00
