 O Sr Ti                                
   1.00000000000000     
     3.9468463416193540    0.0000000000000000    0.0000000000000000
     0.0000000000000000    3.9468463416193540    0.0000000000000000
     0.0000000000000000    0.0000000000000000   21.8671158540483859
   O    Sr   Ti
     9     3     3
Direct
  0.5000000000000000  0.5000000000000000  0.2743846074647820
  0.5000000000000000  0.0000000000000000  0.3646307644788678
  0.0000000000000000  0.5000000000000000  0.3646307644788678
  0.5000000000000000  0.5000000000000000  0.4548769214929536
  0.5000000000000000  0.0000000000000000  0.5451230785070464
  0.0000000000000000  0.5000000000000000  0.5451230785070464
  0.5000000000000000  0.5000000000000000  0.6353692355211322
  0.5000000000000000  0.0000000000000000  0.7256153925352180
  0.0000000000000000  0.5000000000000000  0.7256153925352180
  0.0000000000000000  0.0000000000000000  0.2743846074647820
  0.0000000000000000  0.0000000000000000  0.4548769214929536
  0.0000000000000000  0.0000000000000000  0.6353692355211322
  0.5000000000000000  0.5000000000000000  0.3646307644788678
  0.5000000000000000  0.5000000000000000  0.5451230785070464
  0.5000000000000000  0.5000000000000000  0.7256153925352180
 
  0.00000000E+00  0.00000000E+00  0.00000000E+00
  0.00000000E+00  0.00000000E+00  0.00000000E+00
  0.00000000E+00  0.00000000E+00  0.00000000E+00
  0.00000000E+00  0.00000000E+00  0.00000000E+00
  0.00000000E+00  0.00000000E+00  0.00000000E+00
  0.00000000E+00  0.00000000E+00  0.00000000E+00
  0.00000000E+00  0.00000000E+00  0.00000000E+00
  0.00000000E+00  0.00000000E+00  0.00000000E+00
  0.00000000E+00  0.00000000E+00  0.00000000E+00
  0.00000000E+00  0.00000000E+00  0.00000000E+00
  0.00000000E+00  0.00000000E+00  0.00000000E+00
  0.00000000E+00  0.00000000E+00  0.00000000E+00
  0.00000000E+00  0.00000000E+00  0.00000000E+00
  0.00000000E+00  0.00000000E+00  0.00000000E+00
  0.00000000E+00  0.00000000E+00  0.00000000E+00
