 O Sr Ti 
 1.0000000000000000
     3.9468463416193540    0.0000000000000000    0.0000000000000000
     0.0000000000000000    3.9468463416193540    0.0000000000000000
     0.0000000000000000    0.0000000000000000   21.8671158540483859
   O  Sr  Ti
   9   3   3
Direct
  0.5000000000000000  0.5000000000000000  0.2743846074647830
  0.5000000000000000  0.0000000000000000  0.3646307644788698
  0.0000000000000000  0.5000000000000000  0.3646307644788698
  0.5000000000000000  0.5000000000000000  0.4548769214929566
  0.5000000000000000  0.0000000000000000  0.5451230785070433
  0.0000000000000000  0.5000000000000000  0.5451230785070433
  0.5000000000000000  0.5000000000000000  0.6353692355211301
  0.5000000000000000  0.0000000000000000  0.7256153925352170
  0.0000000000000000  0.5000000000000000  0.7256153925352170
  0.0000000000000000  0.0000000000000000  0.2743846074647830
  0.0000000000000000  0.0000000000000000  0.4548769214929566
  0.0000000000000000  0.0000000000000000  0.6353692355211301
  0.5000000000000000  0.5000000000000000  0.3646307644788698
  0.5000000000000000  0.5000000000000000  0.5451230785070433
  0.5000000000000000  0.5000000000000000  0.7256153925352170
