Pt_bcc
2.9
1.0	0.0	0.0
0.0	1.0	0.0
0.0	0.0	1.0
Pt
2
Direct
0.0	0.0	0.0
0.5	0.5	0.5
