Cu  H                                   
   1.00000000000000     
     2.5738686835190334    0.0000000000000000    0.0000000000000000
     1.2869343417595167    2.2290356659326918    0.0000000000000000
     0.0000000000000000    0.0000000000000000   30.3046649395507117
   Cu   H 
     4     1
Direct
  0.0000000000000000  0.0000000000000000  0.3964270855316769
  0.3333320701180469  0.3333324860412716  0.4651617177790541
  0.6666680254381916  0.6666649720825362  0.5338894204002358
  0.0000000000000000  0.0000000000000000  0.6067122021205407
  0.6666680254381916  0.6666649720825362  0.6315295034007278
 
  0.00000000E+00  0.00000000E+00  0.00000000E+00
  0.00000000E+00  0.00000000E+00  0.00000000E+00
  0.00000000E+00  0.00000000E+00  0.00000000E+00
  0.00000000E+00  0.00000000E+00  0.00000000E+00
  0.00000000E+00  0.00000000E+00  0.00000000E+00
