Cu  H                                   
   1.00000000000000     
     2.5738686835190334    0.0000000000000000    0.0000000000000000
     1.2869343417595167    2.2290356659326918    0.0000000000000000
     0.0000000000000000    0.0000000000000000   30.3046649395507117
   Cu   H 
     4     1
Cartesian
     -0.00000      0.00000     12.01359
      1.28693      0.74301     14.09657
      2.57387      1.48602     16.17934
      0.00000     -0.00000     18.38621
      2.57387      1.48602     19.13829
 
  0.00000000E+00  0.00000000E+00  0.00000000E+00
  0.00000000E+00  0.00000000E+00  0.00000000E+00
  0.00000000E+00  0.00000000E+00  0.00000000E+00
  0.00000000E+00  0.00000000E+00  0.00000000E+00
  0.00000000E+00  0.00000000E+00  0.00000000E+00
