Si_bulk_icsd_60385                      
   1.00000000000000     
     5.4310099999999997    0.0000000000000000    0.0000000000000000
     0.0000000000000000    5.4310099999999997    0.0000000000000000
     0.0000000000000000    0.0000000000000000   21.5910100000000007
   Si   H 
    10     4
Direct
  0.0000000000000000  0.0000000000000000  0.0000000000000000
  0.4999990793609257  0.4999990793609257  0.0000000000000000
  0.2499995396804664  0.2499995396804664  0.0628849692534104
  0.7500004603195336  0.7500004603195336  0.0628849692534104
  0.0000000000000000  0.4999990793609257  0.1257699385068136
  0.4999990793609257  0.0000000000000000  0.1257699385068136
  0.2499995396804664  0.7500004603195336  0.1886553709159529
  0.7500004603195336  0.2499995396804664  0.1886553709159529
  0.0000000000000000  0.0000000000000000  0.2515403401693561
  0.4999990793609257  0.4999990793609257  0.2515403401693561
  0.0000000000000000  0.0000000000000000  0.3163821423824089
  0.4999990793609257  0.4999990793609257  0.3163821423824089
  0.0000000000000000  0.0000000000000000  0.9351577346312183
  0.4999990793609257  0.4999990793609257  0.9351577346312183
 
  0.00000000E+00  0.00000000E+00  0.00000000E+00
  0.00000000E+00  0.00000000E+00  0.00000000E+00
  0.00000000E+00  0.00000000E+00  0.00000000E+00
  0.00000000E+00  0.00000000E+00  0.00000000E+00
  0.00000000E+00  0.00000000E+00  0.00000000E+00
  0.00000000E+00  0.00000000E+00  0.00000000E+00
  0.00000000E+00  0.00000000E+00  0.00000000E+00
  0.00000000E+00  0.00000000E+00  0.00000000E+00
  0.00000000E+00  0.00000000E+00  0.00000000E+00
  0.00000000E+00  0.00000000E+00  0.00000000E+00
  0.00000000E+00  0.00000000E+00  0.00000000E+00
  0.00000000E+00  0.00000000E+00  0.00000000E+00
  0.00000000E+00  0.00000000E+00  0.00000000E+00
  0.00000000E+00  0.00000000E+00  0.00000000E+00
