Si_bulk_icsd_60385                      
   1.00000000000000     
     5.4310099999999997    0.0000000000000000    0.0000000000000000
     0.0000000000000000    5.4310099999999997    0.0000000000000000
     0.0000000000000000    0.0000000000000000    8.7910100000000000
   Si
    10
Direct
  0.0000000000000000  0.0000000000000000  0.0000000000000000
  0.4999990793609257  0.4999990793609257  0.0000000000000000
  0.2499995396804664  0.2499995396804664  0.1544475549453352
  0.7500004603195336  0.7500004603195336  0.1544475549453352
  0.0000000000000000  0.4999990793609257  0.3088951098906705
  0.4999990793609257  0.0000000000000000  0.3088951098906705
  0.2499995396804664  0.7500004603195336  0.4633438023617344
  0.7500004603195336  0.2499995396804664  0.4633438023617344
  0.0000000000000000  0.0000000000000000  0.6177913573070697
  0.4999990793609257  0.4999990793609257  0.6177913573070697
 
  0.00000000E+00  0.00000000E+00  0.00000000E+00
  0.00000000E+00  0.00000000E+00  0.00000000E+00
  0.00000000E+00  0.00000000E+00  0.00000000E+00
  0.00000000E+00  0.00000000E+00  0.00000000E+00
  0.00000000E+00  0.00000000E+00  0.00000000E+00
  0.00000000E+00  0.00000000E+00  0.00000000E+00
  0.00000000E+00  0.00000000E+00  0.00000000E+00
  0.00000000E+00  0.00000000E+00  0.00000000E+00
  0.00000000E+00  0.00000000E+00  0.00000000E+00
  0.00000000E+00  0.00000000E+00  0.00000000E+00
