 K Nb  O 
 1.0000000000000000
     3.9978799999999999    0.0000000000000000   -4.0645100000000003
     0.0000000000000000    7.9957599999999998    0.0000000000000000
     3.9978799999999999    0.0000000000000000    4.0645100000000003
   K  Nb   O
   4   4  12
Direct
 -0.0000000000000000  0.0000000000000000  0.0000000000000000
 -0.0000000000000000  0.5000000000000000  0.0000000000000000
  0.5000000000000000  0.0000000000000000  0.5000000000000000
  0.5000000000000000  0.5000000000000000  0.5000000000000000
  0.4914500000000000  0.2500000000000000  0.0085500000000000
  0.4914500000000000  0.7500000000000000  0.0085500000000000
  0.9914499999999999  0.2500000000000000  0.5085499999999999
  0.9914499999999999  0.7500000000000000  0.5085499999999999
  0.2630000000000000  0.2500000000000000  0.2370000000000000
  0.0104500000000000  0.0000000000000000  0.4895500000000000
  0.2630000000000000  0.7500000000000000  0.2370000000000000
  0.0104500000000000  0.5000000000000000  0.4895500000000000
  0.7630000000000000  0.2500000000000000  0.7370000000000000
  0.7604500000000000  0.2500000000000000  0.2395500000000000
  0.5104500000000001  0.0000000000000000  0.9895500000000000
  0.2604500000000000  0.2500000000000000  0.7395500000000000
  0.7630000000000000  0.7500000000000000  0.7370000000000000
  0.7604500000000000  0.7500000000000000  0.2395500000000000
  0.5104500000000001  0.5000000000000000  0.9895500000000000
  0.2604500000000000  0.7500000000000000  0.7395500000000000
