 O Sr Ti                                
   1.00000000000000     
     3.9468463416193540    0.0000000000000000    0.0000000000000000
     0.0000000000000000    3.9468463416193540    0.0000000000000000
     0.0000000000000000    0.0000000000000000   21.8139621956677381
   O    Sr   Ti
    12     4     4
Direct
  0.5000000000000000  0.5000000000000000  0.1833687967422293
  0.5000000000000000  0.0000000000000000  0.2738348548158740
  0.0000000000000000  0.5000000000000000  0.2738348548158740
  0.5000000000000000  0.5000000000000000  0.3643009128895258
  0.5000000000000000  0.0000000000000000  0.4547669709631776
  0.0000000000000000  0.5000000000000000  0.4547669709631776
  0.5000000000000000  0.5000000000000000  0.5452330290368224
  0.5000000000000000  0.0000000000000000  0.6356990871104742
  0.0000000000000000  0.5000000000000000  0.6356990871104742
  0.5000000000000000  0.5000000000000000  0.7261651451841260
  0.5000000000000000  0.0000000000000000  0.8166312032577707
  0.0000000000000000  0.5000000000000000  0.8166312032577707
  0.0000000000000000  0.0000000000000000  0.1833687967422293
  0.0000000000000000  0.0000000000000000  0.3643009128895258
  0.0000000000000000  0.0000000000000000  0.5452330290368224
  0.0000000000000000  0.0000000000000000  0.7261651451841260
  0.5000000000000000  0.5000000000000000  0.2738348548158740
  0.5000000000000000  0.5000000000000000  0.4547669709631776
  0.5000000000000000  0.5000000000000000  0.6356990871104742
  0.5000000000000000  0.5000000000000000  0.8166312032577707
 
  0.00000000E+00  0.00000000E+00  0.00000000E+00
  0.00000000E+00  0.00000000E+00  0.00000000E+00
  0.00000000E+00  0.00000000E+00  0.00000000E+00
  0.00000000E+00  0.00000000E+00  0.00000000E+00
  0.00000000E+00  0.00000000E+00  0.00000000E+00
  0.00000000E+00  0.00000000E+00  0.00000000E+00
  0.00000000E+00  0.00000000E+00  0.00000000E+00
  0.00000000E+00  0.00000000E+00  0.00000000E+00
  0.00000000E+00  0.00000000E+00  0.00000000E+00
  0.00000000E+00  0.00000000E+00  0.00000000E+00
  0.00000000E+00  0.00000000E+00  0.00000000E+00
  0.00000000E+00  0.00000000E+00  0.00000000E+00
  0.00000000E+00  0.00000000E+00  0.00000000E+00
  0.00000000E+00  0.00000000E+00  0.00000000E+00
  0.00000000E+00  0.00000000E+00  0.00000000E+00
  0.00000000E+00  0.00000000E+00  0.00000000E+00
  0.00000000E+00  0.00000000E+00  0.00000000E+00
  0.00000000E+00  0.00000000E+00  0.00000000E+00
  0.00000000E+00  0.00000000E+00  0.00000000E+00
  0.00000000E+00  0.00000000E+00  0.00000000E+00
