 O Sr Ti 
 1.0000000000000000
     3.9468463416193540    0.0000000000000000    0.0000000000000000
     0.0000000000000000    3.9468463416193540    0.0000000000000000
     0.0000000000000000    0.0000000000000000   21.8139621956677381
   O  Sr  Ti
  12   4   4
Direct
  0.5000000000000000  0.5000000000000000  0.1833687967422260
  0.5000000000000000  0.0000000000000000  0.2738348548158757
  0.0000000000000000  0.5000000000000000  0.2738348548158757
  0.5000000000000000  0.5000000000000000  0.3643009128895254
  0.5000000000000000  0.0000000000000000  0.4547669709631751
  0.0000000000000000  0.5000000000000000  0.4547669709631751
  0.5000000000000000  0.5000000000000000  0.5452330290368249
  0.5000000000000000  0.0000000000000000  0.6356990871104746
  0.0000000000000000  0.5000000000000000  0.6356990871104746
  0.5000000000000000  0.5000000000000000  0.7261651451841243
  0.5000000000000000  0.0000000000000000  0.8166312032577739
  0.0000000000000000  0.5000000000000000  0.8166312032577739
  0.0000000000000000  0.0000000000000000  0.1833687967422260
  0.0000000000000000  0.0000000000000000  0.3643009128895254
  0.0000000000000000  0.0000000000000000  0.5452330290368249
  0.0000000000000000  0.0000000000000000  0.7261651451841243
  0.5000000000000000  0.5000000000000000  0.2738348548158757
  0.5000000000000000  0.5000000000000000  0.4547669709631751
  0.5000000000000000  0.5000000000000000  0.6356990871104746
  0.5000000000000000  0.5000000000000000  0.8166312032577739
