La32 O48
1.0
11.401858 0.000000 0.000000
0.000000 11.401858 0.000000
0.000000 0.000000 11.401858
La O
32 48
direct
0.500000 0.750000 0.970958 La
0.529042 0.500000 0.250000 La
0.250000 0.529042 0.500000 La
0.970958 0.500000 0.750000 La
0.750000 0.970958 0.500000 La
0.500000 0.250000 0.529042 La
0.000000 0.750000 0.529042 La
0.970958 0.000000 0.250000 La
0.250000 0.970958 0.000000 La
0.529042 0.000000 0.750000 La
0.750000 0.529042 0.000000 La
0.000000 0.250000 0.970958 La
0.250000 0.750000 0.750000 La
0.250000 0.250000 0.750000 La
0.750000 0.250000 0.750000 La
0.750000 0.750000 0.750000 La
0.000000 0.250000 0.470958 La
0.029042 0.000000 0.750000 La
0.750000 0.029042 0.000000 La
0.470958 0.000000 0.250000 La
0.250000 0.470958 0.000000 La
0.000000 0.750000 0.029042 La
0.500000 0.250000 0.029042 La
0.470958 0.500000 0.750000 La
0.750000 0.470958 0.500000 La
0.029042 0.500000 0.250000 La
0.250000 0.029042 0.500000 La
0.500000 0.750000 0.470958 La
0.750000 0.250000 0.250000 La
0.750000 0.750000 0.250000 La
0.250000 0.750000 0.250000 La
0.250000 0.250000 0.250000 La
0.648055 0.378629 0.110833 O
0.851945 0.378629 0.889167 O
0.648055 0.621371 0.389167 O
0.621371 0.610833 0.851945 O
0.610833 0.851945 0.621371 O
0.110833 0.648055 0.378629 O
0.378629 0.889167 0.851945 O
0.389167 0.648055 0.621371 O
0.378629 0.110833 0.648055 O
0.889167 0.851945 0.378629 O
0.621371 0.389167 0.648055 O
0.851945 0.621371 0.610833 O
0.851945 0.121371 0.389167 O
0.648055 0.121371 0.610833 O
0.851945 0.878629 0.110833 O
0.878629 0.889167 0.648055 O
0.648055 0.878629 0.889167 O
0.878629 0.110833 0.851945 O
0.610833 0.648055 0.121371 O
0.121371 0.389167 0.851945 O
0.110833 0.851945 0.878629 O
0.121371 0.610833 0.648055 O
0.389167 0.851945 0.121371 O
0.889167 0.648055 0.878629 O
0.148055 0.878629 0.610833 O
0.351945 0.878629 0.389167 O
0.148055 0.121371 0.889167 O
0.121371 0.110833 0.351945 O
0.110833 0.351945 0.121371 O
0.610833 0.148055 0.878629 O
0.878629 0.389167 0.351945 O
0.889167 0.148055 0.121371 O
0.878629 0.610833 0.148055 O
0.389167 0.351945 0.878629 O
0.121371 0.889167 0.148055 O
0.351945 0.121371 0.110833 O
0.351945 0.621371 0.889167 O
0.148055 0.621371 0.110833 O
0.351945 0.378629 0.610833 O
0.378629 0.389167 0.148055 O
0.148055 0.378629 0.389167 O
0.378629 0.610833 0.351945 O
0.110833 0.148055 0.621371 O
0.621371 0.889167 0.351945 O
0.610833 0.351945 0.378629 O
0.621371 0.110833 0.148055 O
0.889167 0.351945 0.621371 O
0.389167 0.148055 0.378629 O
