 cell
        1.000000000000
     0.00000000000000     1.70000000000000    11.90000000000000 
    -1.70000000000000    11.90000000000000     0.00000000000000 
   -11.90000000000000    -1.70000000000000     0.00000000000000 
  Cr Mn Fe Co Ni
  35 35 35 35 35
 Direct coordinates
   0.71428571428571   0.96000000000000   0.43428571428571  site   1 species 1: Cr
   0.71428571428571   0.84000000000000   0.59428571428571  site   2 species 1: Cr
   0.14285714285714   0.04000000000000   0.42285714285714  site   3 species 1: Cr
   0.57142857142857   0.28000000000000   0.53142857142857  site   4 species 1: Cr
   0.57142857142857   0.40000000000000   0.37142857142857  site   5 species 1: Cr
   0.57142857142857   0.52000000000000   0.21142857142857  site   6 species 1: Cr
   0.71428571428571   0.00000000000000   0.71428571428571  site   7 species 1: Cr
   0.71428571428571   0.12000000000000   0.55428571428571  site   8 species 1: Cr
   0.42857142857143   0.32000000000000   0.66857142857143  site   9 species 1: Cr
   0.28571428571429   0.96000000000000   0.00571428571429  site  10 species 1: Cr
   0.85714285714286   0.08000000000000   0.41714285714286  site  11 species 1: Cr
   0.28571428571429   0.12000000000000   0.12571428571429  site  12 species 1: Cr
   0.28571428571429   0.48000000000000   0.64571428571429  site  13 species 1: Cr
   0.57142857142857   0.88000000000000   0.73142857142857  site  14 species 1: Cr
   0.28571428571429   0.36000000000000   0.80571428571429  site  15 species 1: Cr
   0.00000000000000   0.00000000000000   0.00000000000000  site  16 species 1: Cr
   0.85714285714286   0.80000000000000   0.45714285714286  site  17 species 1: Cr
   0.14285714285714   0.80000000000000   0.74285714285714  site  18 species 1: Cr
   0.85714285714286   0.68000000000000   0.61714285714286  site  19 species 1: Cr
   0.00000000000000   0.32000000000000   0.24000000000000  site  20 species 1: Cr
   0.85714285714286   0.44000000000000   0.93714285714286  site  21 species 1: Cr
   0.28571428571429   0.68000000000000   0.04571428571429  site  22 species 1: Cr
   0.28571428571429   0.08000000000000   0.84571428571429  site  23 species 1: Cr
   0.00000000000000   0.56000000000000   0.92000000000000  site  24 species 1: Cr
   0.57142857142857   0.08000000000000   0.13142857142857  site  25 species 1: Cr
   0.42857142857143   0.96000000000000   0.14857142857143  site  26 species 1: Cr
   0.57142857142857   0.12000000000000   0.41142857142857  site  27 species 1: Cr
   0.71428571428571   0.32000000000000   0.95428571428571  site  28 species 1: Cr
   0.57142857142857   0.44000000000000   0.65142857142857  site  29 species 1: Cr
   0.57142857142857   0.56000000000000   0.49142857142857  site  30 species 1: Cr
   0.57142857142857   0.96000000000000   0.29142857142857  site  31 species 1: Cr
   0.85714285714286   0.48000000000000   0.21714285714286  site  32 species 1: Cr
   0.14285714285714   0.96000000000000   0.86285714285714  site  33 species 1: Cr
   0.71428571428571   0.52000000000000   0.35428571428571  site  34 species 1: Cr
   0.00000000000000   0.40000000000000   0.80000000000000  site  35 species 1: Cr
   0.00000000000000   0.76000000000000   0.32000000000000  site  36 species 2: Mn
   0.14285714285714   0.08000000000000   0.70285714285714  site  37 species 2: Mn
   0.85714285714286   0.88000000000000   0.01714285714286  site  38 species 2: Mn
   0.85714285714286   0.28000000000000   0.81714285714286  site  39 species 2: Mn
   0.00000000000000   0.36000000000000   0.52000000000000  site  40 species 2: Mn
   0.14285714285714   0.16000000000000   0.26285714285714  site  41 species 2: Mn
   0.42857142857143   0.76000000000000   0.74857142857143  site  42 species 2: Mn
   0.85714285714286   0.16000000000000   0.97714285714286  site  43 species 2: Mn
   0.28571428571429   0.04000000000000   0.56571428571429  site  44 species 2: Mn
   0.14285714285714   0.56000000000000   0.06285714285714  site  45 species 2: Mn
   0.42857142857143   0.88000000000000   0.58857142857143  site  46 species 2: Mn
   0.71428571428571   0.80000000000000   0.31428571428571  site  47 species 2: Mn
   0.42857142857143   0.12000000000000   0.26857142857143  site  48 species 2: Mn
   0.14285714285714   0.72000000000000   0.18285714285714  site  49 species 2: Mn
   0.85714285714286   0.72000000000000   0.89714285714286  site  50 species 2: Mn
   0.28571428571429   0.52000000000000   0.92571428571429  site  51 species 2: Mn
   0.28571428571429   0.64000000000000   0.76571428571429  site  52 species 2: Mn
   0.42857142857143   0.56000000000000   0.34857142857143  site  53 species 2: Mn
   0.71428571428571   0.48000000000000   0.07428571428571  site  54 species 2: Mn
   0.57142857142857   0.92000000000000   0.01142857142857  site  55 species 2: Mn
   0.71428571428571   0.04000000000000   0.99428571428571  site  56 species 2: Mn
   0.42857142857143   0.40000000000000   0.22857142857143  site  57 species 2: Mn
   0.71428571428571   0.64000000000000   0.19428571428571  site  58 species 2: Mn
   0.71428571428571   0.76000000000000   0.03428571428571  site  59 species 2: Mn
   0.42857142857143   0.04000000000000   0.70857142857143  site  60 species 2: Mn
   0.71428571428571   0.08000000000000   0.27428571428571  site  61 species 2: Mn
   0.42857142857143   0.72000000000000   0.46857142857143  site  62 species 2: Mn
   0.42857142857143   0.92000000000000   0.86857142857143  site  63 species 2: Mn
   0.28571428571429   0.24000000000000   0.96571428571429  site  64 species 2: Mn
   0.14285714285714   0.76000000000000   0.46285714285714  site  65 species 2: Mn
   0.14285714285714   0.64000000000000   0.62285714285714  site  66 species 2: Mn
   0.00000000000000   0.84000000000000   0.88000000000000  site  67 species 2: Mn
   0.14285714285714   0.52000000000000   0.78285714285714  site  68 species 2: Mn
   0.14285714285714   0.68000000000000   0.90285714285714  site  69 species 2: Mn
   0.14285714285714   0.92000000000000   0.58285714285714  site  70 species 2: Mn
   0.00000000000000   0.12000000000000   0.84000000000000  site  71 species 3: Fe
   0.28571428571429   0.00000000000000   0.28571428571429  site  72 species 3: Fe
   0.57142857142857   0.36000000000000   0.09142857142857  site  73 species 3: Fe
   0.57142857142857   0.60000000000000   0.77142857142857  site  74 species 3: Fe
   0.57142857142857   0.00000000000000   0.57142857142857  site  75 species 3: Fe
   0.42857142857143   0.52000000000000   0.06857142857143  site  76 species 3: Fe
   0.57142857142857   0.84000000000000   0.45142857142857  site  77 species 3: Fe
   0.00000000000000   0.16000000000000   0.12000000000000  site  78 species 3: Fe
   0.28571428571429   0.84000000000000   0.16571428571429  site  79 species 3: Fe
   0.14285714285714   0.28000000000000   0.10285714285714  site  80 species 3: Fe
   0.00000000000000   0.20000000000000   0.40000000000000  site  81 species 3: Fe
   0.42857142857143   0.68000000000000   0.18857142857143  site  82 species 3: Fe
   0.00000000000000   0.92000000000000   0.44000000000000  site  83 species 3: Fe
   0.42857142857143   0.28000000000000   0.38857142857143  site  84 species 3: Fe
   0.42857142857143   0.16000000000000   0.54857142857143  site  85 species 3: Fe
   0.14285714285714   0.40000000000000   0.94285714285714  site  86 species 3: Fe
   0.57142857142857   0.16000000000000   0.69142857142857  site  87 species 3: Fe
   0.28571428571429   0.88000000000000   0.44571428571429  site  88 species 3: Fe
   0.28571428571429   0.76000000000000   0.60571428571429  site  89 species 3: Fe
   0.85714285714286   0.20000000000000   0.25714285714286  site  90 species 3: Fe
   0.71428571428571   0.72000000000000   0.75428571428571  site  91 species 3: Fe
   0.85714285714286   0.64000000000000   0.33714285714286  site  92 species 3: Fe
   0.85714285714286   0.52000000000000   0.49714285714286  site  93 species 3: Fe
   0.85714285714286   0.40000000000000   0.65714285714286  site  94 species 3: Fe
   0.28571428571429   0.92000000000000   0.72571428571429  site  95 species 3: Fe
   0.42857142857143   0.36000000000000   0.94857142857143  site  96 species 3: Fe
   0.85714285714286   0.00000000000000   0.85714285714286  site  97 species 3: Fe
   0.71428571428571   0.40000000000000   0.51428571428571  site  98 species 3: Fe
   0.71428571428571   0.28000000000000   0.67428571428571  site  99 species 3: Fe
   0.71428571428571   0.16000000000000   0.83428571428571  site 100 species 3: Fe
   0.57142857142857   0.80000000000000   0.17142857142857  site 101 species 3: Fe
   0.71428571428571   0.24000000000000   0.39428571428571  site 102 species 3: Fe
   0.57142857142857   0.64000000000000   0.05142857142857  site 103 species 3: Fe
   0.85714285714286   0.24000000000000   0.53714285714286  site 104 species 3: Fe
   0.71428571428571   0.44000000000000   0.79428571428571  site 105 species 3: Fe
   0.28571428571429   0.44000000000000   0.36571428571429  site 106 species 4: Co
   0.71428571428571   0.60000000000000   0.91428571428571  site 107 species 4: Co
   0.57142857142857   0.76000000000000   0.89142857142857  site 108 species 4: Co
   0.28571428571429   0.32000000000000   0.52571428571429  site 109 species 4: Co
   0.85714285714286   0.76000000000000   0.17714285714286  site 110 species 4: Co
   0.14285714285714   0.60000000000000   0.34285714285714  site 111 species 4: Co
   0.14285714285714   0.48000000000000   0.50285714285714  site 112 species 4: Co
   0.00000000000000   0.60000000000000   0.20000000000000  site 113 species 4: Co
   0.85714285714286   0.96000000000000   0.57714285714286  site 114 species 4: Co
   0.42857142857143   0.20000000000000   0.82857142857143  site 115 species 4: Co
   0.42857142857143   0.00000000000000   0.42857142857143  site 116 species 4: Co
   0.42857142857143   0.44000000000000   0.50857142857143  site 117 species 4: Co
   0.28571428571429   0.28000000000000   0.24571428571429  site 118 species 4: Co
   0.42857142857143   0.80000000000000   0.02857142857143  site 119 species 4: Co
   0.42857142857143   0.24000000000000   0.10857142857143  site 120 species 4: Co
   0.42857142857143   0.08000000000000   0.98857142857143  site 121 species 4: Co
   0.71428571428571   0.36000000000000   0.23428571428571  site 122 species 4: Co
   0.14285714285714   0.88000000000000   0.30285714285714  site 123 species 4: Co
   0.85714285714286   0.92000000000000   0.29714285714286  site 124 species 4: Co
   0.85714285714286   0.56000000000000   0.77714285714286  site 125 species 4: Co
   0.00000000000000   0.44000000000000   0.08000000000000  site 126 species 4: Co
   0.57142857142857   0.48000000000000   0.93142857142857  site 127 species 4: Co
   0.57142857142857   0.24000000000000   0.25142857142857  site 128 species 4: Co
   0.28571428571429   0.80000000000000   0.88571428571429  site 129 species 4: Co
   0.57142857142857   0.32000000000000   0.81142857142857  site 130 species 4: Co
   0.00000000000000   0.64000000000000   0.48000000000000  site 131 species 4: Co
   0.57142857142857   0.68000000000000   0.33142857142857  site 132 species 4: Co
   0.00000000000000   0.88000000000000   0.16000000000000  site 133 species 4: Co
   0.14285714285714   0.12000000000000   0.98285714285714  site 134 species 4: Co
   0.14285714285714   0.24000000000000   0.82285714285714  site 135 species 4: Co
   0.85714285714286   0.84000000000000   0.73714285714286  site 136 species 4: Co
   0.42857142857143   0.48000000000000   0.78857142857143  site 137 species 4: Co
   0.14285714285714   0.20000000000000   0.54285714285714  site 138 species 4: Co
   0.42857142857143   0.60000000000000   0.62857142857143  site 139 species 4: Co
   0.42857142857143   0.84000000000000   0.30857142857143  site 140 species 4: Co
   0.57142857142857   0.72000000000000   0.61142857142857  site 141 species 5: Ni
   0.28571428571429   0.72000000000000   0.32571428571429  site 142 species 5: Ni
   0.14285714285714   0.84000000000000   0.02285714285714  site 143 species 5: Ni
   0.00000000000000   0.68000000000000   0.76000000000000  site 144 species 5: Ni
   0.71428571428571   0.68000000000000   0.47428571428571  site 145 species 5: Ni
   0.71428571428571   0.20000000000000   0.11428571428571  site 146 species 5: Ni
   0.28571428571429   0.56000000000000   0.20571428571429  site 147 species 5: Ni
   0.85714285714286   0.12000000000000   0.69714285714286  site 148 species 5: Ni
   0.28571428571429   0.20000000000000   0.68571428571429  site 149 species 5: Ni
   0.00000000000000   0.28000000000000   0.96000000000000  site 150 species 5: Ni
   0.71428571428571   0.56000000000000   0.63428571428571  site 151 species 5: Ni
   0.57142857142857   0.20000000000000   0.97142857142857  site 152 species 5: Ni
   0.85714285714286   0.04000000000000   0.13714285714286  site 153 species 5: Ni
   0.00000000000000   0.48000000000000   0.36000000000000  site 154 species 5: Ni
   0.00000000000000   0.72000000000000   0.04000000000000  site 155 species 5: Ni
   0.14285714285714   0.32000000000000   0.38285714285714  site 156 species 5: Ni
   0.00000000000000   0.04000000000000   0.28000000000000  site 157 species 5: Ni
   0.71428571428571   0.88000000000000   0.87428571428571  site 158 species 5: Ni
   0.14285714285714   0.00000000000000   0.14285714285714  site 159 species 5: Ni
   0.00000000000000   0.08000000000000   0.56000000000000  site 160 species 5: Ni
   0.42857142857143   0.64000000000000   0.90857142857143  site 161 species 5: Ni
   0.14285714285714   0.36000000000000   0.66285714285714  site 162 species 5: Ni
   0.00000000000000   0.52000000000000   0.64000000000000  site 163 species 5: Ni
   0.85714285714286   0.60000000000000   0.05714285714286  site 164 species 5: Ni
   0.28571428571429   0.40000000000000   0.08571428571429  site 165 species 5: Ni
   0.57142857142857   0.04000000000000   0.85142857142857  site 166 species 5: Ni
   0.00000000000000   0.80000000000000   0.60000000000000  site 167 species 5: Ni
   0.28571428571429   0.16000000000000   0.40571428571429  site 168 species 5: Ni
   0.71428571428571   0.92000000000000   0.15428571428571  site 169 species 5: Ni
   0.00000000000000   0.96000000000000   0.72000000000000  site 170 species 5: Ni
   0.85714285714286   0.32000000000000   0.09714285714286  site 171 species 5: Ni
   0.14285714285714   0.44000000000000   0.22285714285714  site 172 species 5: Ni
   0.28571428571429   0.60000000000000   0.48571428571429  site 173 species 5: Ni
   0.85714285714286   0.36000000000000   0.37714285714286  site 174 species 5: Ni
   0.00000000000000   0.24000000000000   0.68000000000000  site 175 species 5: Ni
