 cell
        1.000000000000
     0.00000000000000     1.70000000000000     8.50000000000000 
    -1.70000000000000     8.50000000000000     0.00000000000000 
    -8.50000000000000    -1.70000000000000     0.00000000000000 
  Cr Mn Fe Co Ni
  13 13 13 13 13
 Direct coordinates
   0.80000000000000   0.30769230769231   0.33846153846154  site  1 species 1: Cr
   0.00000000000000   0.69230769230769   0.46153846153846  site  2 species 1: Cr
   0.00000000000000   0.00000000000000   0.00000000000000  site  3 species 1: Cr
   0.80000000000000   0.07692307692308   0.18461538461538  site  4 species 1: Cr
   0.60000000000000   0.46153846153846   0.90769230769231  site  5 species 1: Cr
   0.60000000000000   0.30769230769231   0.13846153846154  site  6 species 1: Cr
   0.80000000000000   0.69230769230769   0.26153846153846  site  7 species 1: Cr
   0.00000000000000   0.15384615384615   0.76923076923077  site  8 species 1: Cr
   0.20000000000000   0.07692307692308   0.58461538461538  site  9 species 1: Cr
   0.20000000000000   0.61538461538462   0.27692307692308  site 10 species 1: Cr
   0.20000000000000   0.30769230769231   0.73846153846154  site 11 species 1: Cr
   0.00000000000000   0.92307692307692   0.61538461538462  site 12 species 1: Cr
   0.80000000000000   0.76923076923077   0.64615384615385  site 13 species 1: Cr
   0.40000000000000   0.84615384615385   0.63076923076923  site 14 species 2: Mn
   0.80000000000000   0.53846153846154   0.49230769230769  site 15 species 2: Mn
   0.40000000000000   0.15384615384615   0.16923076923077  site 16 species 2: Mn
   0.60000000000000   0.92307692307692   0.21538461538462  site 17 species 2: Mn
   0.20000000000000   0.76923076923077   0.04615384615385  site 18 species 2: Mn
   0.00000000000000   0.84615384615385   0.23076923076923  site 19 species 2: Mn
   0.80000000000000   0.15384615384615   0.56923076923077  site 20 species 2: Mn
   0.80000000000000   0.46153846153846   0.10769230769231  site 21 species 2: Mn
   0.00000000000000   0.76923076923077   0.84615384615385  site 22 species 2: Mn
   0.20000000000000   0.84615384615385   0.43076923076923  site 23 species 2: Mn
   0.00000000000000   0.61538461538462   0.07692307692308  site 24 species 2: Mn
   0.40000000000000   0.61538461538462   0.47692307692308  site 25 species 2: Mn
   0.60000000000000   0.76923076923077   0.44615384615385  site 26 species 2: Mn
   0.80000000000000   0.23076923076923   0.95384615384615  site 27 species 3: Fe
   0.20000000000000   0.38461538461538   0.12307692307692  site 28 species 3: Fe
   0.00000000000000   0.07692307692308   0.38461538461538  site 29 species 3: Fe
   0.20000000000000   0.00000000000000   0.20000000000000  site 30 species 3: Fe
   0.00000000000000   0.46153846153846   0.30769230769231  site 31 species 3: Fe
   0.40000000000000   0.07692307692308   0.78461538461538  site 32 species 3: Fe
   0.80000000000000   0.61538461538462   0.87692307692308  site 33 species 3: Fe
   0.80000000000000   0.38461538461538   0.72307692307692  site 34 species 3: Fe
   0.40000000000000   0.92307692307692   0.01538461538462  site 35 species 3: Fe
   0.40000000000000   0.46153846153846   0.70769230769231  site 36 species 3: Fe
   0.60000000000000   0.53846153846154   0.29230769230769  site 37 species 3: Fe
   0.60000000000000   0.23076923076923   0.75384615384615  site 38 species 3: Fe
   0.60000000000000   0.07692307692308   0.98461538461538  site 39 species 3: Fe
   0.20000000000000   0.92307692307692   0.81538461538462  site 40 species 4: Co
   0.40000000000000   0.38461538461538   0.32307692307692  site 41 species 4: Co
   0.40000000000000   0.53846153846154   0.09230769230769  site 42 species 4: Co
   0.60000000000000   0.00000000000000   0.60000000000000  site 43 species 4: Co
   0.20000000000000   0.53846153846154   0.89230769230769  site 44 species 4: Co
   0.60000000000000   0.69230769230769   0.06153846153846  site 45 species 4: Co
   0.20000000000000   0.15384615384615   0.96923076923077  site 46 species 4: Co
   0.20000000000000   0.23076923076923   0.35384615384615  site 47 species 4: Co
   0.20000000000000   0.46153846153846   0.50769230769231  site 48 species 4: Co
   0.60000000000000   0.61538461538462   0.67692307692308  site 49 species 4: Co
   0.00000000000000   0.23076923076923   0.15384615384615  site 50 species 4: Co
   0.80000000000000   0.84615384615385   0.03076923076923  site 51 species 4: Co
   0.00000000000000   0.38461538461538   0.92307692307692  site 52 species 4: Co
   0.60000000000000   0.84615384615385   0.83076923076923  site 53 species 5: Ni
   0.60000000000000   0.38461538461538   0.52307692307692  site 54 species 5: Ni
   0.40000000000000   0.69230769230769   0.86153846153846  site 55 species 5: Ni
   0.00000000000000   0.53846153846154   0.69230769230769  site 56 species 5: Ni
   0.40000000000000   0.23076923076923   0.55384615384615  site 57 species 5: Ni
   0.40000000000000   0.76923076923077   0.24615384615385  site 58 species 5: Ni
   0.00000000000000   0.30769230769231   0.53846153846154  site 59 species 5: Ni
   0.40000000000000   0.00000000000000   0.40000000000000  site 60 species 5: Ni
   0.60000000000000   0.15384615384615   0.36923076923077  site 61 species 5: Ni
   0.40000000000000   0.30769230769231   0.93846153846154  site 62 species 5: Ni
   0.20000000000000   0.69230769230769   0.66153846153846  site 63 species 5: Ni
   0.80000000000000   0.92307692307692   0.41538461538462  site 64 species 5: Ni
   0.80000000000000   0.00000000000000   0.80000000000000  site 65 species 5: Ni
