k-density: 6.0
0
Gamma
 10 10 1
 0  0  0
