Cu  H                                   
   1.00000000000000     
     2.5738686835190334    0.0000000000000000    0.0000000000000000
     1.2869343417595167    2.2290356659326918    0.0000000000000000
     0.0000000000000000    0.0000000000000000   30.3046649395507117
   Cu   H 
     4     1
Direct
  0.0000000000000000  0.0000000000000000  0.3988150205292840
  0.3333333323456102  0.3333333339415674  0.4672501061551060
  0.6666666646912205  0.6666666678831277  0.5360420252922538
  0.0000000000000000  0.0000000000000000  0.6056841838249412
  0.0000000000000000  0.0000000000000000  0.6589266424767146
 
  0.00000000E+00  0.00000000E+00  0.00000000E+00
  0.00000000E+00  0.00000000E+00  0.00000000E+00
  0.00000000E+00  0.00000000E+00  0.00000000E+00
  0.00000000E+00  0.00000000E+00  0.00000000E+00
  0.00000000E+00  0.00000000E+00  0.00000000E+00
