 O Sr Ti                                
   1.00000000000000     
     3.9052680000000000    0.0000000000000000    0.0000000000000000
     0.0000000000000000    3.9052680000000000    0.0000000000000000
     0.0000000000000000    0.0000000000000000   25.6684380000000019
   O    Sr   Ti
    12     4     4
Direct
  0.5000000000000000  0.5000000000000000  0.2337501019734844
  0.5000000000000000  0.0000000000000000  0.3098215014096297
  0.0000000000000000  0.5000000000000000  0.3098215014096297
  0.5000000000000000  0.5000000000000000  0.3858929008457750
  0.5000000000000000  0.0000000000000000  0.4619643002819274
  0.0000000000000000  0.5000000000000000  0.4619643002819274
  0.5000000000000000  0.5000000000000000  0.5380356997180726
  0.5000000000000000  0.0000000000000000  0.6141070991542250
  0.0000000000000000  0.5000000000000000  0.6141070991542250
  0.5000000000000000  0.5000000000000000  0.6901784985903703
  0.5000000000000000  0.0000000000000000  0.7662498980265156
  0.0000000000000000  0.5000000000000000  0.7662498980265156
  0.0000000000000000  0.0000000000000000  0.2337501019734844
  0.0000000000000000  0.0000000000000000  0.3858929008457750
  0.0000000000000000  0.0000000000000000  0.5380356997180726
  0.0000000000000000  0.0000000000000000  0.6901784985903703
  0.5000000000000000  0.5000000000000000  0.3098215014096297
  0.5000000000000000  0.5000000000000000  0.4619643002819274
  0.5000000000000000  0.5000000000000000  0.6141070991542250
  0.5000000000000000  0.5000000000000000  0.7662498980265156
 
  0.00000000E+00  0.00000000E+00  0.00000000E+00
  0.00000000E+00  0.00000000E+00  0.00000000E+00
  0.00000000E+00  0.00000000E+00  0.00000000E+00
  0.00000000E+00  0.00000000E+00  0.00000000E+00
  0.00000000E+00  0.00000000E+00  0.00000000E+00
  0.00000000E+00  0.00000000E+00  0.00000000E+00
  0.00000000E+00  0.00000000E+00  0.00000000E+00
  0.00000000E+00  0.00000000E+00  0.00000000E+00
  0.00000000E+00  0.00000000E+00  0.00000000E+00
  0.00000000E+00  0.00000000E+00  0.00000000E+00
  0.00000000E+00  0.00000000E+00  0.00000000E+00
  0.00000000E+00  0.00000000E+00  0.00000000E+00
  0.00000000E+00  0.00000000E+00  0.00000000E+00
  0.00000000E+00  0.00000000E+00  0.00000000E+00
  0.00000000E+00  0.00000000E+00  0.00000000E+00
  0.00000000E+00  0.00000000E+00  0.00000000E+00
  0.00000000E+00  0.00000000E+00  0.00000000E+00
  0.00000000E+00  0.00000000E+00  0.00000000E+00
  0.00000000E+00  0.00000000E+00  0.00000000E+00
  0.00000000E+00  0.00000000E+00  0.00000000E+00
