ZnSb_Pbca_icsd_43265
1.0
  6.20160000  0.00000000  0.00000000
  0.00000000  7.74160000  0.00000000
  0.00000000  0.00000000  8.09950000
Zn Sb
  8  8
Direct
  0.45860000  0.11280000  0.86800000
  0.95860000  0.38720000 -0.86800000
 -0.45860000  0.61280000 -0.36800000
  0.04140000 -0.11280000  1.36800000
 -0.45860000 -0.11280000 -0.86800000
  0.04140000  0.61280000  0.86800000
  0.45860000  0.38720000  1.36800000
  0.95860000  0.11280000 -0.36800000
  0.14200000  0.08120000  0.10770000
  0.64200000  0.41880000 -0.10770000
 -0.14200000  0.58120000  0.39230000
  0.35800000 -0.08120000  0.60770000
 -0.14200000 -0.08120000 -0.10770000
  0.35800000  0.58120000  0.10770000
  0.14200000  0.41880000  0.60770000
  0.64200000  0.08120000  0.39230000
