 O Sr Ti 
 1.0000000000000000
     3.9049999999999998    0.0000000000000000    0.0000000000000000
     0.0000000000000000    3.9049999999999998    0.0000000000000000
     0.0000000000000000    0.0000000000000000    7.8099999999999987
   O  Sr  Ti
   6   2   2
Direct
  0.4999999999999997  0.4999999999999997  0.0000000000000000
  0.4999999999999997  0.0000000000000000  0.2499999999999999
  0.0000000000000000  0.4999999999999997  0.2499999999999999
  0.4999999999999997  0.4999999999999997  0.5000000000000001
  0.4999999999999997  0.0000000000000000  0.7500000000000000
  0.0000000000000000  0.4999999999999997  0.7500000000000000
  0.0000000000000000  0.0000000000000000  0.0000000000000000
  0.0000000000000000  0.0000000000000000  0.5000000000000001
  0.4999999999999997  0.4999999999999997  0.2499999999999999
  0.4999999999999997  0.4999999999999997  0.7500000000000000
