 O Sr Ti                                
   1.00000000000000     
     3.9468463416193540    0.0000000000000000    0.0000000000000000
     0.0000000000000000    3.9468463416193540    0.0000000000000000
     0.0000000000000000    0.0000000000000000   25.8139621956677381
   O    Sr   Ti
    12     4     4
Direct
  0.5000000000000000  0.5000000000000000  0.2309848000539034
  0.5000000000000000  0.0000000000000000  0.3073675730136003
  0.0000000000000000  0.5000000000000000  0.3073675730136003
  0.5000000000000000  0.5000000000000000  0.3850981878390130
  0.5000000000000000  0.0000000000000000  0.4616941120389271
  0.0000000000000000  0.5000000000000000  0.4616941120389271
  0.5000000000000000  0.5000000000000000  0.5382080489378680
  0.5000000000000000  0.0000000000000000  0.6145653381174370
  0.0000000000000000  0.5000000000000000  0.6145653381174370
  0.5000000000000000  0.5000000000000000  0.6913734774058895
  0.5000000000000000  0.0000000000000000  0.7672036575464674
  0.0000000000000000  0.5000000000000000  0.7672036575464674
  0.0000000000000000  0.0000000000000000  0.2396187057484411
  0.0000000000000000  0.0000000000000000  0.3870195348466723
  0.0000000000000000  0.0000000000000000  0.5392824442023496
  0.0000000000000000  0.0000000000000000  0.6967424601658507
  0.5000000000000000  0.5000000000000000  0.3054472488066153
  0.5000000000000000  0.5000000000000000  0.4607667359457679
  0.5000000000000000  0.5000000000000000  0.6133291607620421
  0.5000000000000000  0.5000000000000000  0.7633636315494385
 
  0.00000000E+00  0.00000000E+00  0.00000000E+00
  0.00000000E+00  0.00000000E+00  0.00000000E+00
  0.00000000E+00  0.00000000E+00  0.00000000E+00
  0.00000000E+00  0.00000000E+00  0.00000000E+00
  0.00000000E+00  0.00000000E+00  0.00000000E+00
  0.00000000E+00  0.00000000E+00  0.00000000E+00
  0.00000000E+00  0.00000000E+00  0.00000000E+00
  0.00000000E+00  0.00000000E+00  0.00000000E+00
  0.00000000E+00  0.00000000E+00  0.00000000E+00
  0.00000000E+00  0.00000000E+00  0.00000000E+00
  0.00000000E+00  0.00000000E+00  0.00000000E+00
  0.00000000E+00  0.00000000E+00  0.00000000E+00
  0.00000000E+00  0.00000000E+00  0.00000000E+00
  0.00000000E+00  0.00000000E+00  0.00000000E+00
  0.00000000E+00  0.00000000E+00  0.00000000E+00
  0.00000000E+00  0.00000000E+00  0.00000000E+00
  0.00000000E+00  0.00000000E+00  0.00000000E+00
  0.00000000E+00  0.00000000E+00  0.00000000E+00
  0.00000000E+00  0.00000000E+00  0.00000000E+00
  0.00000000E+00  0.00000000E+00  0.00000000E+00
