Graphene                                     
   1.00000000000000     
     2.4682042313783046    0.0000000000000000    0.0000000000000000
    -1.2341021156891523    2.1375275661052724    0.0000000000000000
     0.0000000000000000    0.0000000000000000   15.0
   C 
     2
Direct
  0.3333333333333333  0.6666666666666667  0.5000000000000000
  0.6666666666666667  0.3333333333333333  0.5000000000000000
