Pt_hcp                                  
   2.80000000000000     
     0.9877199756667233   -0.0000000000000000   -0.0000000000000000
    -0.4938599878333615    0.8553905871229875    0.0000000000000000
     0.0000000000000000   -0.0000000000000000    1.7094954049216391
   Pt
     2
Direct
  0.3333333300000021  0.6666666699999979  0.2500000000000000
  0.6666666699999979  0.3333333300000021  0.7500000000000000
 
  0.00000000E+00  0.00000000E+00  0.00000000E+00
  0.00000000E+00  0.00000000E+00  0.00000000E+00
