Half-Heusler-Ti-Ni-Sn
1.0
  5.921000  0.000000  0.000000
  0.000000  5.921000  0.000000
  0.000000  0.000000  5.921000
  Ti Ni Sn
  4  4  4
Direct
 0.25	 0.25	 0.25
 0.25	 0.75	 0.75
 0.75	 0.25	 0.75
 0.75	 0.75	 0.25
 0.00	 0.50	 0.50
 0.00	 0.00	 0.00
 0.50	 0.00	 0.50
 0.50	 0.50	 0.00
 0.50	 0.00	 0.00
 0.00	 0.50	 0.00
 0.00	 0.00	 0.50
 0.50	 0.50	 0.50
