Cu  O Zn 
 1.0000000000000000
     6.2706488993917109    0.0000000000000000    0.0000000000000000
     3.1353244496958554    5.4305412450861521    0.0000000000000000
     0.0000000000000052   -0.0000000000000017   38.7632360831649123
  Cu   O  Zn
  16  24  16
Selective dynamics
Direct
  0.9164800735635760  0.9158516364507229  0.4645555131141434   T   T   T
  0.4164800735635761  0.9158516364507229  0.4645555131141434   T   T   T
  0.9164800735635756  0.4158516364507232  0.4645555131141434   T   T   T
  0.5831467402302424  0.5825183031173898  0.4009927083083875   T   T   T
  0.0831467402302428  0.5825183031173897  0.4009927083083875   T   T   T
  0.5831467402302426  0.0825183031173899  0.4009927083083875   T   T   T
  0.4164800735635760  0.4158516364507231  0.4645555131141434   T   T   T
  0.7498134068969091  0.2491849697840566  0.3374299035026316   T   T   T
  0.2498134068969093  0.7491849697840567  0.3374299035026316   T   T   T
  0.9164800735635759  0.9158516364507232  0.2738670986968756   F   F   F
  0.4164800735635761  0.9158516364507230  0.2738670986968756   F   F   F
  0.9164800735635760  0.4158516364507231  0.2738670986968756   F   F   F
  0.7498134068969092  0.7491849697840565  0.3374299035026316   T   T   T
  0.2498134068969093  0.2491849697840564  0.3374299035026316   T   T   T
  0.0831467402302427  0.0825183031173898  0.4009927083083875   T   T   T
  0.4164800735635761  0.4158516364507231  0.2738670986968756   F   F   F
  0.7498134068969092  0.7491849697840565  0.4804462143155824   T   T   T
  0.4164800735635759  0.4158516364507230  0.4168834095098265   T   T   T
  0.7498134068969092  0.7491849697840567  0.3851020071069485   T   T   T
  0.7498134068969092  0.7491849697840567  0.2897577998983146   T   T   T
  0.0831467402302427  0.0825183031173898  0.4486648119127045   T   T   T
  0.0831467402302428  0.0825183031173899  0.3533206047040705   T   T   T
  0.4164800735635760  0.4158516364507231  0.3215392023011926   T   T   T
  0.0831467402302427  0.0825183031173898  0.2579763974954366   F   F   F
  0.1340313212593491  0.9318623832777239  0.5402989584830067   T   T   T
  0.1340313212593491  0.9318623832777239  0.6747820544973778   T   T   T
  0.1340313212593494  0.4318623832777240  0.5402989584830067   T   T   T
  0.1340313212593494  0.4318623832777240  0.6747820544973778   T   T   T
  0.9673313212593490  0.7651623832777238  0.6075405064901923   T   T   T
  0.9673313212593488  0.7651623832777239  0.7420236025045635   T   T   T
  0.6340313212593491  0.9318623832777239  0.5402989584830067   T   T   T
  0.9673313212593490  0.2651623832777239  0.6075405064901923   T   T   T
  0.6340313212593491  0.9318623832777239  0.6747820544973778   T   T   T
  0.9673313212593492  0.2651623832777239  0.7420236025045635   T   T   T
  0.6340313212593489  0.4318623832777238  0.5402989584830067   T   T   T
  0.6340313212593489  0.4318623832777238  0.6747820544973778   T   T   T
  0.4673313212593491  0.7651623832777238  0.6075405064901923   T   T   T
  0.4673313212593491  0.7651623832777238  0.7420236025045635   T   T   T
  0.4673313212593491  0.2651623832777240  0.6075405064901923   T   T   T
  0.4673313212593488  0.2651623832777241  0.7420236025045635   T   T   T
  0.1340313212593491  0.9318623832777239  0.5916715011604965   T   T   T
  0.1340313212593491  0.9318623832777239  0.7261545971748675   T   T   T
  0.1340313212593489  0.4318623832777237  0.5916715011604965   T   T   T
  0.1340313212593489  0.4318623832777238  0.7261545971748675   T   T   T
  0.6340313212593488  0.9318623832777239  0.5916715011604965   T   T   T
  0.9673313212593490  0.7651623832777238  0.5244299531533110   T   T   T
  0.6340313212593488  0.9318623832777239  0.7261545971748675   T   T   T
  0.9673313212593493  0.7651623832777238  0.6589130491676821   T   T   T
  0.6340313212593489  0.4318623832777238  0.5916715011604965   T   T   T
  0.9673313212593492  0.2651623832777239  0.5244299531533110   T   T   T
  0.6340313212593490  0.4318623832777240  0.7261545971748675   T   T   T
  0.9673313212593490  0.2651623832777239  0.6589130491676821   T   T   T
  0.4673313212593491  0.7651623832777238  0.5244299531533110   T   T   T
  0.4673313212593491  0.7651623832777239  0.6589130491676821   T   T   T
  0.4673313212593491  0.2651623832777240  0.5244299531533110   T   T   T
  0.4673313212593491  0.2651623832777240  0.6589130491676821   T   T   T
