 O Sr Ti                                
   1.00000000000000     
     3.9468463416193540    0.0000000000000000    0.0000000000000000
     0.0000000000000000    3.9468463416193540    0.0000000000000000
     0.0000000000000000    0.0000000000000000   25.8139621956677381
   O    Sr   Ti
    12     4     4
Direct
  0.5000000000000000  0.5000000000000000  0.2324323540307560
  0.5000000000000000  0.0000000000000000  0.3088802528791135
  0.0000000000000000  0.5000000000000000  0.3088802528791135
  0.5000000000000000  0.5000000000000000  0.3853281517274638
  0.5000000000000000  0.0000000000000000  0.4617760505758213
  0.0000000000000000  0.5000000000000000  0.4617760505758213
  0.5000000000000000  0.5000000000000000  0.5382239494241787
  0.5000000000000000  0.0000000000000000  0.6146718482725362
  0.0000000000000000  0.5000000000000000  0.6146718482725362
  0.5000000000000000  0.5000000000000000  0.6911197471208865
  0.5000000000000000  0.0000000000000000  0.7675676459692440
  0.0000000000000000  0.5000000000000000  0.7675676459692440
  0.0000000000000000  0.0000000000000000  0.2324323540307560
  0.0000000000000000  0.0000000000000000  0.3853281517274638
  0.0000000000000000  0.0000000000000000  0.5382239494241787
  0.0000000000000000  0.0000000000000000  0.6911197471208865
  0.5000000000000000  0.5000000000000000  0.3088802528791135
  0.5000000000000000  0.5000000000000000  0.4617760505758213
  0.5000000000000000  0.5000000000000000  0.6146718482725362
  0.5000000000000000  0.5000000000000000  0.7675676459692440
 
  0.00000000E+00  0.00000000E+00  0.00000000E+00
  0.00000000E+00  0.00000000E+00  0.00000000E+00
  0.00000000E+00  0.00000000E+00  0.00000000E+00
  0.00000000E+00  0.00000000E+00  0.00000000E+00
  0.00000000E+00  0.00000000E+00  0.00000000E+00
  0.00000000E+00  0.00000000E+00  0.00000000E+00
  0.00000000E+00  0.00000000E+00  0.00000000E+00
  0.00000000E+00  0.00000000E+00  0.00000000E+00
  0.00000000E+00  0.00000000E+00  0.00000000E+00
  0.00000000E+00  0.00000000E+00  0.00000000E+00
  0.00000000E+00  0.00000000E+00  0.00000000E+00
  0.00000000E+00  0.00000000E+00  0.00000000E+00
  0.00000000E+00  0.00000000E+00  0.00000000E+00
  0.00000000E+00  0.00000000E+00  0.00000000E+00
  0.00000000E+00  0.00000000E+00  0.00000000E+00
  0.00000000E+00  0.00000000E+00  0.00000000E+00
  0.00000000E+00  0.00000000E+00  0.00000000E+00
  0.00000000E+00  0.00000000E+00  0.00000000E+00
  0.00000000E+00  0.00000000E+00  0.00000000E+00
  0.00000000E+00  0.00000000E+00  0.00000000E+00
