Cu32 O48
1.0
9.340193 0.000000 0.000000
0.000000 9.340193 0.000000
0.000000 0.000000 9.340193
Cu O
32 48
direct
0.750000 0.250000 0.250000 Cu
0.750000 0.465959 0.500000 Cu
0.000000 0.750000 0.034041 Cu
0.000000 0.250000 0.465959 Cu
0.034041 0.000000 0.750000 Cu
0.034041 0.500000 0.250000 Cu
0.250000 0.465959 0.000000 Cu
0.250000 0.750000 0.250000 Cu
0.250000 0.250000 0.750000 Cu
0.250000 0.034041 0.500000 Cu
0.250000 0.250000 0.250000 Cu
0.465959 0.000000 0.250000 Cu
0.465959 0.500000 0.750000 Cu
0.500000 0.750000 0.465959 Cu
0.500000 0.250000 0.034041 Cu
0.750000 0.034041 0.000000 Cu
0.250000 0.750000 0.750000 Cu
0.250000 0.965959 0.000000 Cu
0.500000 0.250000 0.534041 Cu
0.500000 0.750000 0.965959 Cu
0.534041 0.500000 0.250000 Cu
0.534041 0.000000 0.750000 Cu
0.750000 0.965959 0.500000 Cu
0.750000 0.250000 0.750000 Cu
0.750000 0.750000 0.250000 Cu
0.750000 0.534041 0.000000 Cu
0.750000 0.750000 0.750000 Cu
0.965959 0.500000 0.750000 Cu
0.965959 0.000000 0.250000 Cu
0.000000 0.250000 0.965959 Cu
0.000000 0.750000 0.534041 Cu
0.250000 0.534041 0.500000 Cu
0.896434 0.621702 0.164243 O
0.896434 0.378298 0.335757 O
0.378298 0.664243 0.603566 O
0.878298 0.335757 0.603566 O
0.121702 0.164243 0.603566 O
0.121702 0.335757 0.103566 O
0.603566 0.378298 0.664243 O
0.103566 0.121702 0.335757 O
0.664243 0.603566 0.378298 O
0.164243 0.396434 0.378298 O
0.164243 0.896434 0.621702 O
0.164243 0.603566 0.121702 O
0.335757 0.896434 0.378298 O
0.335757 0.103566 0.121702 O
0.335757 0.603566 0.878298 O
0.835757 0.896434 0.121702 O
0.896434 0.121702 0.835757 O
0.396434 0.378298 0.164243 O
0.378298 0.164243 0.396434 O
0.378298 0.335757 0.896434 O
0.621702 0.164243 0.896434 O
0.121702 0.835757 0.896434 O
0.603566 0.878298 0.335757 O
0.603566 0.121702 0.164243 O
0.396434 0.121702 0.664243 O
0.396434 0.878298 0.835757 O
0.878298 0.164243 0.103566 O
0.378298 0.835757 0.103566 O
0.621702 0.664243 0.103566 O
0.621702 0.835757 0.603566 O
0.103566 0.878298 0.164243 O
0.603566 0.621702 0.835757 O
0.164243 0.103566 0.878298 O
0.664243 0.896434 0.878298 O
0.664243 0.396434 0.121702 O
0.664243 0.103566 0.621702 O
0.835757 0.396434 0.878298 O
0.835757 0.603566 0.621702 O
0.835757 0.103566 0.378298 O
0.335757 0.396434 0.621702 O
0.396434 0.621702 0.335757 O
0.896434 0.878298 0.664243 O
0.878298 0.664243 0.896434 O
0.878298 0.835757 0.396434 O
0.121702 0.664243 0.396434 O
0.621702 0.335757 0.396434 O
0.103566 0.378298 0.835757 O
0.103566 0.621702 0.664243 O
