SiO2_P3221_icsd_34644
1.0
  4.91370000  0.00000000  0.00000000
 -2.45685000  4.25538903  0.00000000
  0.00000000  0.00000000  5.40513000
  3  6
Direct
  0.46980000  0.00000000  0.66667000
  0.00000000  0.46980000  1.33333000
 -0.46980000 -0.46980000  1.00000000
  0.41450000  0.26620000  0.78560000
 -0.26620000  0.14830000  1.45227000
 -0.14830000 -0.41450000  1.11893000
  0.14830000 -0.26620000 -0.45227000
  0.26620000  0.41450000  0.21440000
 -0.41450000 -0.14830000 -0.11893000
