 O Sr Ti                                
   1.00000000000000     
     5.5816836249207240    0.0000000000000000    0.0000000000000000
     0.0000000000000000    3.9468463416193540    0.0000000000000000
     0.0000000000000000    0.0000000000000000   21.7679463436112712
   O    Sr   Ti
    12     4     4
Direct
  0.5000000000000000  0.0000000000000000  0.2339465651481234
  0.2418844298775937  0.5000000000000000  0.3076332004150117
  0.7581155701224063  0.5000000000000000  0.3076332004150117
  0.0000000000000000  0.0000000000000000  0.3829277999871792
  0.7469924133381127  0.5000000000000000  0.4529157309948175
  0.2530075866618873  0.5000000000000000  0.4529157309948175
  0.5000000000000000  0.0000000000000000  0.5257773731375153
  0.2455736313926522  0.5000000000000000  0.5964973093797141
  0.7544263686073336  0.5000000000000000  0.5964973093797141
  0.0000000000000000  0.0000000000000000  0.6694230021377194
  0.7475696942202177  0.5000000000000000  0.7391412051403776
  0.2524303057797823  0.5000000000000000  0.7391412051403776
  0.0000000000000000  0.0000000000000000  0.2747847710736551
  0.5000000000000000  0.0000000000000000  0.4174638302938618
  0.0000000000000000  0.0000000000000000  0.5601221041114144
  0.5000000000000000  0.0000000000000000  0.7179809879590806
  0.5000000000000000  0.5000000000000000  0.2586379654717490
  0.0000000000000000  0.5000000000000000  0.4028473160936272
  0.5000000000000000  0.5000000000000000  0.5469244411929566
  0.0000000000000000  0.5000000000000000  0.6885801729738787
 
  0.00000000E+00  0.00000000E+00  0.00000000E+00
  0.00000000E+00  0.00000000E+00  0.00000000E+00
  0.00000000E+00  0.00000000E+00  0.00000000E+00
  0.00000000E+00  0.00000000E+00  0.00000000E+00
  0.00000000E+00  0.00000000E+00  0.00000000E+00
  0.00000000E+00  0.00000000E+00  0.00000000E+00
  0.00000000E+00  0.00000000E+00  0.00000000E+00
  0.00000000E+00  0.00000000E+00  0.00000000E+00
  0.00000000E+00  0.00000000E+00  0.00000000E+00
  0.00000000E+00  0.00000000E+00  0.00000000E+00
  0.00000000E+00  0.00000000E+00  0.00000000E+00
  0.00000000E+00  0.00000000E+00  0.00000000E+00
  0.00000000E+00  0.00000000E+00  0.00000000E+00
  0.00000000E+00  0.00000000E+00  0.00000000E+00
  0.00000000E+00  0.00000000E+00  0.00000000E+00
  0.00000000E+00  0.00000000E+00  0.00000000E+00
  0.00000000E+00  0.00000000E+00  0.00000000E+00
  0.00000000E+00  0.00000000E+00  0.00000000E+00
  0.00000000E+00  0.00000000E+00  0.00000000E+00
  0.00000000E+00  0.00000000E+00  0.00000000E+00
