 O Sr Ti                                
   1.00000000000000     
     5.5816836249207240    0.0000000000000000    0.0000000000000000
     0.0000000000000000    3.9468463416193540    0.0000000000000000
     0.0000000000000000    0.0000000000000000   21.7679463436112712
   O    Sr   Ti
    12     4     4
Direct
  0.5000000000000000 -0.0000000000000000  0.2339465651481245
  0.2418844298775967  0.5000000000000000  0.3076332004150115
  0.7581155701224096  0.5000000000000000  0.3076332004150115
  0.0000000000000000 -0.0000000000000000  0.3829277999871807
  0.7469924133381159  0.5000000000000000  0.4529157309948159
  0.2530075866618854  0.5000000000000000  0.4529157309948159
  0.5000000000000000 -0.0000000000000000  0.5257773731375174
  0.2455736313926527  0.5000000000000000  0.5964973093797171
  0.7544263686073346  0.5000000000000000  0.5964973093797171
  0.0000000000000000 -0.0000000000000000  0.6694230021377164
  0.7475696942202199  0.5000000000000000  0.7391412051403776
  0.2524303057797820  0.5000000000000000  0.7391412051403776
  0.0000000000000000 -0.0000000000000000  0.2747847710736571
  0.5000000000000000 -0.0000000000000000  0.4174638302938585
  0.0000000000000000 -0.0000000000000000  0.5601221041114147
  0.5000000000000000 -0.0000000000000000  0.7179809879590773
  0.5000000000000000  0.5000000000000000  0.2586379654717501
  0.0000000000000000  0.5000000000000000  0.4028473160936297
  0.5000000000000000  0.5000000000000000  0.5469244411929561
  0.0000000000000000  0.5000000000000000  0.6885801729738819
 
  0.00000000E+00  0.00000000E+00  0.00000000E+00
  0.00000000E+00  0.00000000E+00  0.00000000E+00
  0.00000000E+00  0.00000000E+00  0.00000000E+00
  0.00000000E+00  0.00000000E+00  0.00000000E+00
  0.00000000E+00  0.00000000E+00  0.00000000E+00
  0.00000000E+00  0.00000000E+00  0.00000000E+00
  0.00000000E+00  0.00000000E+00  0.00000000E+00
  0.00000000E+00  0.00000000E+00  0.00000000E+00
  0.00000000E+00  0.00000000E+00  0.00000000E+00
  0.00000000E+00  0.00000000E+00  0.00000000E+00
  0.00000000E+00  0.00000000E+00  0.00000000E+00
  0.00000000E+00  0.00000000E+00  0.00000000E+00
  0.00000000E+00  0.00000000E+00  0.00000000E+00
  0.00000000E+00  0.00000000E+00  0.00000000E+00
  0.00000000E+00  0.00000000E+00  0.00000000E+00
  0.00000000E+00  0.00000000E+00  0.00000000E+00
  0.00000000E+00  0.00000000E+00  0.00000000E+00
  0.00000000E+00  0.00000000E+00  0.00000000E+00
  0.00000000E+00  0.00000000E+00  0.00000000E+00
  0.00000000E+00  0.00000000E+00  0.00000000E+00
