Si_bulk_icsd_60385                      
   1.00000000000000     
     5.4310099999999997    0.0000000000000000    0.0000000000000000
     0.0000000000000000    5.4310099999999997    0.0000000000000000
     0.0000000000000000    0.0000000000000000   14.7910100000000000
   Si
    10
Direct
  0.0000000000000000  0.0000000000000000  0.0000000000000000
  0.4999990793609257  0.4999990793609257  0.0000000000000000
  0.2499995396804664  0.2499995396804664  0.0917956245043428
  0.7500004603195336  0.7500004603195336  0.0917956245043428
  0.0000000000000000  0.4999990793609257  0.1835912490086855
  0.4999990793609257  0.0000000000000000  0.1835912490086855
  0.2499995396804664  0.7500004603195336  0.2753875495993867
  0.7500004603195336  0.2499995396804664  0.2753875495993867
  0.0000000000000000  0.0000000000000000  0.3671831741037295
  0.4999990793609257  0.4999990793609257  0.3671831741037295
 
  0.00000000E+00  0.00000000E+00  0.00000000E+00
  0.00000000E+00  0.00000000E+00  0.00000000E+00
  0.00000000E+00  0.00000000E+00  0.00000000E+00
  0.00000000E+00  0.00000000E+00  0.00000000E+00
  0.00000000E+00  0.00000000E+00  0.00000000E+00
  0.00000000E+00  0.00000000E+00  0.00000000E+00
  0.00000000E+00  0.00000000E+00  0.00000000E+00
  0.00000000E+00  0.00000000E+00  0.00000000E+00
  0.00000000E+00  0.00000000E+00  0.00000000E+00
  0.00000000E+00  0.00000000E+00  0.00000000E+00
