 O Sr Ti 
 1.0000000000000000
     5.5816836249207240    0.0000000000000000    0.0000000000000000
     0.0000000000000000    3.9468463416193540    0.0000000000000000
     0.0000000000000000    0.0000000000000000   23.1633672436112712
   O  Sr  Ti
  12   4   4
Cartesian
   1.39542091  1.97342317  4.6045791
   2.79084181  0.00000000  6.00000000
   1.39542091  1.97342317  7.39542091
   4.18626272  1.97342317  7.39542091
   0.00000000  0.00000000  8.79084181
   4.18626272  1.97342317 10.18626272
   1.39542091  1.97342317 10.18626272
   2.79084181  0.00000000 11.58168362
   1.39542091  1.97342317 12.97710453
   4.18626272  1.97342317 12.97710453
   0.00000000  0.00000000 14.37252544
   4.18626272  1.97342317 15.76794634
   0.00000000  0.00000000  6.00000000
   2.79084181  0.00000000  8.79084181
   0.00000000  0.00000000 11.58168362
   2.79084181  0.00000000 14.37252544
   2.79084181  1.97342317  6.00000000
   0.00000000  1.97342317  8.79084181
   2.79084181  1.97342317 11.58168362
   0.00000000  1.97342317 14.37252544
