Cu Sb Zn 
 1.0000000000000000
    10.3629608406129456   -0.0000000000000004    0.0000000000000000
    -6.6191227061684206    4.6292559806397913    0.0000000000000000
    -0.0000000000000000   -0.0000000000000000   19.2706496443825372
Cu Sb Zn
  35  10  10
Direct
  0.2168523146009042  0.8958505521667676  0.4219395870888134
  0.2168523146009041  0.8958505521667673  0.2346080717212280
  0.2168523146009041  0.8958505521667673  0.0472765563536427
  0.6454237431723325  0.9672791235953387  0.3282738294050206
  0.7882808860294754  0.8244219807381959  0.3282738294050206
  0.5025666003151897  0.6101362664524818  0.4219395870888134
  0.6454237431723325  0.9672791235953387  0.1409423140374354
  0.7882808860294753  0.8244219807381959  0.1409423140374354
  0.5025666003151897  0.6101362664524818  0.2346080717212280
  0.5025666003151897  0.6101362664524818  0.0472765563536427
  0.3597094574580469  0.7529934093096247  0.4219395870888134
  0.0739951717437614  0.5387076950239106  0.3282738294050206
  0.2168523146009042  0.3958505521667675  0.3282738294050206
  0.3597094574580469  0.7529934093096247  0.2346080717212280
  0.0739951717437614  0.5387076950239106  0.1409423140374354
  0.2168523146009042  0.3958505521667675  0.1409423140374354
  0.3597094574580470  0.7529934093096247  0.0472765563536427
  0.9311380288866185  0.6815648378810533  0.3282738294050206
  0.7882808860294757  0.3244219807381960  0.4219395870888134
  0.9311380288866185  0.6815648378810532  0.1409423140374354
  0.7882808860294757  0.3244219807381960  0.2346080717212280
  0.7882808860294754  0.3244219807381959  0.0472765563536427
  0.6454237431723328  0.4672791235953391  0.4219395870888134
  0.3597094574580470  0.2529934093096248  0.3282738294050206
  0.5025666003151900  0.1101362664524818  0.3282738294050206
  0.6454237431723325  0.4672791235953388  0.2346080717212280
  0.3597094574580469  0.2529934093096246  0.1409423140374354
  0.5025666003151897  0.1101362664524817  0.1409423140374354
  0.6454237431723325  0.4672791235953388  0.0472765563536427
  0.0739951717437613  0.0387076950239104  0.4219395870888134
  0.0739951717437613  0.0387076950239102  0.2346080717212280
  0.0739951717437613  0.0387076950239102  0.0472765563536427
  0.9311380288866182  0.1815648378810532  0.4219395870888134
  0.9311380288866182  0.1815648378810532  0.2346080717212280
  0.9311380288866182  0.1815648378810531  0.0472765563536427
  0.8611505084763862  0.7586944803684419  0.5337659398033555
  0.6443505084763863  0.0418944803684421  0.8694169219634461
  0.3611505084763861  0.0406944803684419  0.6685726291438610
  0.8611505084763860  0.2586944803684418  0.6685726291438610
  0.6443505084763860  0.5418944803684417  0.7346102326229405
  0.1443505084763861  0.3238944803684419  0.7346102326229405
  0.1443505084763860  0.8238944803684419  0.8694169219634461
  0.3611505084763861  0.5406944803684419  0.5337659398033555
  0.8611505084763860  0.7586944803684417  0.9354545254425256
  0.3611505084763861  0.5406944803684419  0.9354545254425256
  0.5447505084763862  0.2005944803684418  0.5450935579183801
  0.9607505084763862  0.1165944803684419  0.8580893038484213
  0.4607505084763860  0.3819944803684418  0.8580893038484215
  0.9607505084763860  0.6165944803684418  0.7459378507379651
  0.4607505084763860  0.8819944803684419  0.7459378507379653
  0.0447505084763858  0.9659944803684415  0.6572450110288364
  0.0447505084763862  0.4659944803684420  0.5450935579183801
  0.5447505084763861  0.7005944803684416  0.6572450110288364
  0.5447505084763858  0.2005944803684416  0.9467821435575502
  0.0447505084763859  0.4659944803684419  0.9467821435575502
