Cu Sb Zn 
 1.0000000000000000
    10.3629608406129456   -0.0000000000000004    0.0000000000000000
    -6.6191227061684206    4.6292559806397913    0.0000000000000000
     0.0000000000000000   -0.0000000000000000   15.7782598005198444
  35   6   6
Direct
  0.2147680185594650  0.8926007447621375  0.5151353348240857
  0.2147680185594649  0.8926007447621372  0.2863395078038549
  0.2147680185594649  0.8926007447621372  0.0575436807836241
  0.6433394471308933  0.9640293161907086  0.4007374213139703
  0.7861965899880362  0.8211721733335660  0.4007374213139703
  0.5004823042737506  0.6068864590478518  0.5151353348240857
  0.6433394471308933  0.9640293161907086  0.1719415942937396
  0.7861965899880362  0.8211721733335658  0.1719415942937396
  0.5004823042737506  0.6068864590478518  0.2863395078038549
  0.5004823042737506  0.6068864590478518  0.0575436807836241
  0.3576251614166078  0.7497436019049947  0.5151353348240857
  0.0719108757023223  0.5354578876192805  0.4007374213139703
  0.2147680185594650  0.3926007447621375  0.4007374213139703
  0.3576251614166078  0.7497436019049947  0.2863395078038549
  0.0719108757023223  0.5354578876192805  0.1719415942937396
  0.2147680185594650  0.3926007447621375  0.1719415942937396
  0.3576251614166078  0.7497436019049946  0.0575436807836241
  0.9290537328451793  0.6783150304764233  0.4007374213139703
  0.7861965899880364  0.3211721733335660  0.5151353348240857
  0.9290537328451790  0.6783150304764231  0.1719415942937396
  0.7861965899880364  0.3211721733335660  0.2863395078038549
  0.7861965899880362  0.3211721733335659  0.0575436807836241
  0.6433394471308936  0.4640293161907090  0.5151353348240857
  0.3576251614166078  0.2497436019049947  0.4007374213139703
  0.5004823042737508  0.1068864590478518  0.4007374213139703
  0.6433394471308934  0.4640293161907088  0.2863395078038549
  0.3576251614166078  0.2497436019049945  0.1719415942937396
  0.5004823042737506  0.1068864590478517  0.1719415942937396
  0.6433394471308934  0.4640293161907088  0.0575436807836241
  0.0719108757023222  0.0354578876192804  0.5151353348240857
  0.0719108757023221  0.0354578876192802  0.2863395078038549
  0.0719108757023221  0.0354578876192802  0.0575436807836241
  0.9290537328451790  0.1783150304764232  0.5151353348240857
  0.9290537328451790  0.1783150304764232  0.2863395078038549
  0.9290537328451790  0.1783150304764231  0.0575436807836241
  0.8589396482816507  0.7560447871130391  0.6516157262102418
  0.3589396482816506  0.0380447871130392  0.8162607829429500
  0.8589396482816505  0.2560447871130391  0.8162607829429500
  0.6421396482816506  0.5392447871130389  0.8969152743817381
  0.1421396482816505  0.3212447871130391  0.8969152743817381
  0.3589396482816507  0.5380447871130392  0.6516157262102418
  0.5425396482816507  0.1979447871130391  0.6654506207271141
  0.9585396482816505  0.6139447871130390  0.9107501688986105
  0.4585396482816504  0.8793447871130390  0.9107501688986105
  0.0425396482816503  0.9633447871130386  0.8024258884260776
  0.0425396482816507  0.4633447871130393  0.6654506207271141
  0.5425396482816506  0.6979447871130389  0.8024258884260776
