Cu-slab111-4layers-a=3.61               
   1.00000000000000     
     2.2106640000000000   -1.2763279999999999    0.0000000000000000
     2.2106640000000000    1.2763279999999999    0.0000000000000000
     0.0000000000000000    0.0000000000000000   23.3369380000000000
   Cu   H 
     4     1
Selective
Direct
  0.0000000000000000  0.0000000000000000  0.9983467411463778  F F F
  0.3333333333333357  0.3333333333333357  0.0877906719491506  F F F
  0.6666668928430539  0.6666668928430539  0.1774589868840408  F F F
  0.0000000000000000  0.0000000000000000  0.2714424653904715  F F F
  0.3333333333333357  0.3333333333333357  0.3081783981801323  T T T
 