 O Sr Ti                                
   1.00000000000000     
     3.9468463416193540    0.0000000000000000    0.0000000000000000
     0.0000000000000000    3.9468463416193540    0.0000000000000000
     0.0000000000000000    0.0000000000000000   17.9202695124290301
   O    Sr   Ti
     6     2     2
Direct
  0.5000000000000000  0.5000000000000000  0.3348163930145418
  0.5000000000000000  0.0000000000000000  0.4449387976715116
  0.0000000000000000  0.5000000000000000  0.4449387976715116
  0.5000000000000000  0.5000000000000000  0.5550612023284884
  0.5000000000000000  0.0000000000000000  0.6651836069854582
  0.0000000000000000  0.5000000000000000  0.6651836069854582
  0.0000000000000000  0.0000000000000000  0.3348163930145418
  0.0000000000000000  0.0000000000000000  0.5550612023284884
  0.5000000000000000  0.5000000000000000  0.4449387976715116
  0.5000000000000000  0.5000000000000000  0.6651836069854582
 
  0.00000000E+00  0.00000000E+00  0.00000000E+00
  0.00000000E+00  0.00000000E+00  0.00000000E+00
  0.00000000E+00  0.00000000E+00  0.00000000E+00
  0.00000000E+00  0.00000000E+00  0.00000000E+00
  0.00000000E+00  0.00000000E+00  0.00000000E+00
  0.00000000E+00  0.00000000E+00  0.00000000E+00
  0.00000000E+00  0.00000000E+00  0.00000000E+00
  0.00000000E+00  0.00000000E+00  0.00000000E+00
  0.00000000E+00  0.00000000E+00  0.00000000E+00
  0.00000000E+00  0.00000000E+00  0.00000000E+00
