 O Sr Ti 
 1.0000000000000000
     3.9468463416193540    0.0000000000000000    0.0000000000000000
     0.0000000000000000    3.9468463416193540    0.0000000000000000
     0.0000000000000000    0.0000000000000000   17.9202695124290301
   O  Sr  Ti
   6   2   2
Direct
  0.5000000000000000  0.5000000000000000  0.3348163930145446
  0.5000000000000000  0.0000000000000000  0.4449387976715149
  0.0000000000000000  0.5000000000000000  0.4449387976715149
  0.5000000000000000  0.5000000000000000  0.5550612023284852
  0.5000000000000000  0.0000000000000000  0.6651836069854554
  0.0000000000000000  0.5000000000000000  0.6651836069854554
  0.0000000000000000  0.0000000000000000  0.3348163930145446
  0.0000000000000000  0.0000000000000000  0.5550612023284852
  0.5000000000000000  0.5000000000000000  0.4449387976715149
  0.5000000000000000  0.5000000000000000  0.6651836069854554
