EntryWithCollCode67714
 1.0000000000000000
     5.4535000000000000    0.0000000000000000    0.0000000000000000
    -2.7267499999999987    4.7228695395384364    0.0000000000000000
     0.0000000000000000    0.0000000000000000   13.1010000000000009
  La  Ni   O
   6   6  18
Direct
  0.0000000000000000  0.0000000000000000  0.2500000000000000
  0.0000000000000000  0.0000000000000000  0.7500000000000000
  0.6666666666666666  0.3333333333333333  0.5833333333333334
  0.6666666666666666  0.3333333333333333  0.0833333333333333
  0.3333333333333333  0.6666666666666666  0.9166666666666666
  0.3333333333333333  0.6666666666666666  0.4166666666666666
  0.0000000000000000  0.0000000000000000  0.5000000000000000
  0.0000000000000000  0.0000000000000000  0.0000000000000000
  0.6666666666666666  0.3333333333333333  0.8333333333333333
  0.6666666666666666  0.3333333333333333  0.3333333333333333
  0.3333333333333333  0.6666666666666666  0.1666666666666667
  0.3333333333333333  0.6666666666666666  0.6666666666666666
  0.5468000000000000  0.0000000000000000  0.2500000000000000
  0.4532000000000001  0.4532000000000000  0.2500000000000000
  0.0000000000000000  0.5468000000000000  0.2500000000000000
  0.5468000000000000  0.5468000000000000  0.7500000000000000
  0.0000000000000000  0.4532000000000000  0.7500000000000000
  0.4532000000000001  0.0000000000000000  0.7500000000000000
  0.2134666666666667  0.3333333333333333  0.5833333333333334
  0.1198666666666667  0.7865333333333333  0.5833333333333334
  0.6666666666666666  0.8801333333333332  0.5833333333333334
  0.2134666666666667  0.8801333333333332  0.0833333333333333
  0.6666666666666666  0.7865333333333333  0.0833333333333333
  0.1198666666666667  0.3333333333333333  0.0833333333333333
  0.8801333333333331  0.6666666666666666  0.9166666666666666
  0.7865333333333333  0.1198666666666667  0.9166666666666666
  0.3333333333333333  0.2134666666666667  0.9166666666666666
  0.8801333333333331  0.2134666666666667  0.4166666666666666
  0.3333333333333333  0.1198666666666667  0.4166666666666666
  0.7865333333333333  0.6666666666666666  0.4166666666666666
