Si_bulk_icsd_60385                      
   1.00000000000000     
     5.4310099999999997    0.0000000000000000    0.0000000000000000
     0.0000000000000000    5.4310099999999997    0.0000000000000000
     0.0000000000000000    0.0000000000000000   21.5910100000000007
   Si   H 
    10     4
Direct
  0.0000000000000000  0.0000000000000000  0.0024232538072741
  0.4999990793609257  0.4999990793609257  0.0024232538072741
  0.2499995396804664  0.2499995396804664  0.0606977556151561
  0.7500004603195336  0.7500004603195336  0.0606977556151561
 -0.0000000000000000  0.4999990793609257  0.1257699385068136
  0.4999990793609257 -0.0000000000000000  0.1257699385068136
  0.2499995396804664  0.7500004603195336  0.1908425845542071
  0.7500004603195336  0.2499995396804664  0.1908425845542071
 -0.0000000000000000  0.0000000000000000  0.2491170863620820
  0.4999990793609257  0.4999990793609257  0.2491170863620820
 -0.0000000000000000 -0.0000000000000000  0.3185066137416613
  0.4999990793609257  0.4999990793609257  0.3185066137416613
 -0.0000000000000000 -0.0000000000000000  0.9330332632719659
  0.4999990793609257  0.4999990793609257  0.9330332632719659
 
  0.00000000E+00  0.00000000E+00  0.00000000E+00
  0.00000000E+00  0.00000000E+00  0.00000000E+00
  0.00000000E+00  0.00000000E+00  0.00000000E+00
  0.00000000E+00  0.00000000E+00  0.00000000E+00
  0.00000000E+00  0.00000000E+00  0.00000000E+00
  0.00000000E+00  0.00000000E+00  0.00000000E+00
  0.00000000E+00  0.00000000E+00  0.00000000E+00
  0.00000000E+00  0.00000000E+00  0.00000000E+00
  0.00000000E+00  0.00000000E+00  0.00000000E+00
  0.00000000E+00  0.00000000E+00  0.00000000E+00
  0.00000000E+00  0.00000000E+00  0.00000000E+00
  0.00000000E+00  0.00000000E+00  0.00000000E+00
  0.00000000E+00  0.00000000E+00  0.00000000E+00
  0.00000000E+00  0.00000000E+00  0.00000000E+00
