Cu  H                                   
   1.00000000000000     
     2.5738686835190334    0.0000000000000000    0.0000000000000000
     1.2869343417595167    2.2290356659326918    0.0000000000000000
     0.0000000000000000    0.0000000000000000   30.3046649395507117
   Cu   H 
     4     1
Direct
 -0.0000000000000000  0.0000000000000000  0.3964269825814560
  0.3333333333333357  0.3333333333333357  0.4651616203571438
  0.6666666666666643  0.6666666666666643  0.5338894214477524
  0.0000000000000000 -0.0000000000000000  0.6067122560425550
  0.6666666666666643  0.6666666666666643  0.6348292998257515
 
  0.00000000E+00  0.00000000E+00  0.00000000E+00
  0.00000000E+00  0.00000000E+00  0.00000000E+00
  0.00000000E+00  0.00000000E+00  0.00000000E+00
  0.00000000E+00  0.00000000E+00  0.00000000E+00
  0.00000000E+00  0.00000000E+00  0.00000000E+00
