 O Sr Ti                                
   1.00000000000000     
     3.9468463416193540    0.0000000000000000    0.0000000000000000
     0.0000000000000000    3.9468463416193540    0.0000000000000000
     0.0000000000000000    0.0000000000000000   15.8139621956677381
   O    Sr   Ti
    12     4     4
Direct
  0.5000000000000000  0.5000000000000000  0.0632352592997805
  0.5000000000000000  0.0000000000000000  0.1880251852141299
  0.0000000000000000  0.5000000000000000  0.1880251852141299
  0.5000000000000000  0.5000000000000000  0.3128151111284794
  0.5000000000000000  0.0000000000000000  0.4376050370428288
  0.0000000000000000  0.5000000000000000  0.4376050370428288
  0.5000000000000000  0.5000000000000000  0.5623949629571712
  0.5000000000000000  0.0000000000000000  0.6871848888715206
  0.0000000000000000  0.5000000000000000  0.6871848888715206
  0.5000000000000000  0.5000000000000000  0.8119748147858701
  0.5000000000000000  0.0000000000000000  0.9367647407002195
  0.0000000000000000  0.5000000000000000  0.9367647407002195
  0.0000000000000000  0.0000000000000000  0.0632352592997805
  0.0000000000000000  0.0000000000000000  0.3128151111284794
  0.0000000000000000  0.0000000000000000  0.5623949629571712
  0.0000000000000000  0.0000000000000000  0.8119748147858701
  0.5000000000000000  0.5000000000000000  0.1880251852141299
  0.5000000000000000  0.5000000000000000  0.4376050370428288
  0.5000000000000000  0.5000000000000000  0.6871848888715206
  0.5000000000000000  0.5000000000000000  0.9367647407002195
 
  0.00000000E+00  0.00000000E+00  0.00000000E+00
  0.00000000E+00  0.00000000E+00  0.00000000E+00
  0.00000000E+00  0.00000000E+00  0.00000000E+00
  0.00000000E+00  0.00000000E+00  0.00000000E+00
  0.00000000E+00  0.00000000E+00  0.00000000E+00
  0.00000000E+00  0.00000000E+00  0.00000000E+00
  0.00000000E+00  0.00000000E+00  0.00000000E+00
  0.00000000E+00  0.00000000E+00  0.00000000E+00
  0.00000000E+00  0.00000000E+00  0.00000000E+00
  0.00000000E+00  0.00000000E+00  0.00000000E+00
  0.00000000E+00  0.00000000E+00  0.00000000E+00
  0.00000000E+00  0.00000000E+00  0.00000000E+00
  0.00000000E+00  0.00000000E+00  0.00000000E+00
  0.00000000E+00  0.00000000E+00  0.00000000E+00
  0.00000000E+00  0.00000000E+00  0.00000000E+00
  0.00000000E+00  0.00000000E+00  0.00000000E+00
  0.00000000E+00  0.00000000E+00  0.00000000E+00
  0.00000000E+00  0.00000000E+00  0.00000000E+00
  0.00000000E+00  0.00000000E+00  0.00000000E+00
  0.00000000E+00  0.00000000E+00  0.00000000E+00
