 O Sr Ti 
 1.0000000000000000
     3.9468463416193540    0.0000000000000000    0.0000000000000000
     0.0000000000000000    3.9468463416193540    0.0000000000000000
     0.0000000000000000    0.0000000000000000   15.8139621956677381
   O  Sr  Ti
  12   4   4
Direct
  0.5000000000000000  0.5000000000000000  0.0632352592997820
  0.5000000000000000  0.0000000000000000  0.1880251852141300
  0.0000000000000000  0.5000000000000000  0.1880251852141300
  0.5000000000000000  0.5000000000000000  0.3128151111284780
  0.5000000000000000  0.0000000000000000  0.4376050370428261
  0.0000000000000000  0.5000000000000000  0.4376050370428261
  0.5000000000000000  0.5000000000000000  0.5623949629571741
  0.5000000000000000  0.0000000000000000  0.6871848888715221
  0.0000000000000000  0.5000000000000000  0.6871848888715221
  0.5000000000000000  0.5000000000000000  0.8119748147858700
  0.5000000000000000  0.0000000000000000  0.9367647407002180
  0.0000000000000000  0.5000000000000000  0.9367647407002180
  0.0000000000000000  0.0000000000000000  0.0632352592997820
  0.0000000000000000  0.0000000000000000  0.3128151111284780
  0.0000000000000000  0.0000000000000000  0.5623949629571741
  0.0000000000000000  0.0000000000000000  0.8119748147858700
  0.5000000000000000  0.5000000000000000  0.1880251852141300
  0.5000000000000000  0.5000000000000000  0.4376050370428261
  0.5000000000000000  0.5000000000000000  0.6871848888715221
  0.5000000000000000  0.5000000000000000  0.9367647407002180
