EntryWithCollCode55442
 1.0000000000000000
     8.4027999999999992    0.0000000000000000    0.0000000000000000
     0.0000000000000000    8.4027999999999992    0.0000000000000000
     0.0000000000000000    0.0000000000000000    8.4027999999999992
  Zn   V   O
   8  16  32
Direct
  0.8750000000000000  0.8750000000000000  0.8750000000000000
  0.1250000000000000  0.1250000000000000  0.1250000000000000
  0.8750000000000000  0.3750000000000000  0.3750000000000000
  0.1250000000000000  0.6250000000000000  0.6250000000000000
  0.3750000000000000  0.8750000000000000  0.3750000000000000
  0.6250000000000000  0.1250000000000000  0.6250000000000000
  0.3750000000000000  0.3750000000000000  0.8750000000000000
  0.6250000000000000  0.6250000000000000  0.1250000000000000
  0.5000000000000000  0.2500000000000000  0.2500000000000000
  0.2500000000000000  0.5000000000000000  0.2500000000000000
  0.2500000000000000  0.2500000000000000  0.5000000000000000
  0.5000000000000000  0.5000000000000000  0.5000000000000000
  0.5000000000000000  0.7500000000000000  0.7500000000000000
  0.7500000000000000  0.5000000000000000  0.7500000000000000
  0.7500000000000000  0.7500000000000000  0.5000000000000000
  0.2500000000000000  0.0000000000000000  0.7500000000000000
  0.2500000000000000  0.7500000000000000  0.0000000000000000
  0.5000000000000000  0.0000000000000000  0.0000000000000000
  0.7500000000000000  0.0000000000000000  0.2500000000000000
  0.7500000000000000  0.2500000000000000  0.0000000000000000
  0.0000000000000000  0.2500000000000000  0.7500000000000000
  0.0000000000000000  0.5000000000000000  0.0000000000000000
  0.0000000000000000  0.7500000000000000  0.2500000000000000
  0.0000000000000000  0.0000000000000000  0.5000000000000000
  0.7396000000000000  0.0104000000000000  0.0104000000000000
  0.0104000000000000  0.7396000000000000  0.0104000000000000
  0.0104000000000000  0.0104000000000000  0.7396000000000000
  0.7396000000000000  0.7396000000000000  0.7396000000000000
  0.2604000000000000  0.9896000000000001  0.9896000000000001
  0.9896000000000001  0.2604000000000000  0.9896000000000001
  0.9896000000000001  0.9896000000000001  0.2604000000000000
  0.2604000000000000  0.2604000000000000  0.2604000000000000
  0.7396000000000000  0.5104000000000001  0.5104000000000001
  0.0104000000000000  0.2396000000000000  0.5104000000000001
  0.0104000000000000  0.5104000000000001  0.2396000000000000
  0.7396000000000000  0.2396000000000000  0.2396000000000000
  0.2604000000000000  0.4896000000000000  0.4896000000000000
  0.9896000000000001  0.7604000000000001  0.4896000000000000
  0.9896000000000001  0.4896000000000000  0.7604000000000001
  0.2604000000000000  0.7604000000000001  0.7604000000000001
  0.2396000000000000  0.0104000000000000  0.5104000000000001
  0.5104000000000001  0.7396000000000000  0.5104000000000001
  0.5104000000000001  0.0104000000000000  0.2396000000000000
  0.2396000000000000  0.7396000000000000  0.2396000000000000
  0.7604000000000001  0.9896000000000001  0.4896000000000000
  0.4896000000000000  0.2604000000000000  0.4896000000000000
  0.4896000000000000  0.9896000000000001  0.7604000000000001
  0.7604000000000001  0.2604000000000000  0.7604000000000001
  0.2396000000000000  0.5104000000000001  0.0104000000000000
  0.5104000000000001  0.2396000000000000  0.0104000000000000
  0.5104000000000001  0.5104000000000001  0.7396000000000000
  0.2396000000000000  0.2396000000000000  0.7396000000000000
  0.7604000000000001  0.4896000000000000  0.9896000000000001
  0.4896000000000000  0.7604000000000001  0.9896000000000001
  0.4896000000000000  0.4896000000000000  0.2604000000000000
  0.7604000000000001  0.7604000000000001  0.2604000000000000
