 O Sr Ti                                
   1.00000000000000     
     3.9468463416193540    0.0000000000000000    0.0000000000000000
     0.0000000000000000    3.9468463416193540    0.0000000000000000
     0.0000000000000000    0.0000000000000000   23.8139621956677381
   O    Sr   Ti
    12     4     4
Direct
  0.5000000000000000  0.5000000000000000  0.2099608607302486
  0.5000000000000000  0.0000000000000000  0.2928291862358918
  0.0000000000000000  0.5000000000000000  0.2928291862358918
  0.5000000000000000  0.5000000000000000  0.3756975117415351
  0.5000000000000000  0.0000000000000000  0.4585658372471784
  0.0000000000000000  0.5000000000000000  0.4585658372471784
  0.5000000000000000  0.5000000000000000  0.5414341627528216
  0.5000000000000000  0.0000000000000000  0.6243024882584649
  0.0000000000000000  0.5000000000000000  0.6243024882584649
  0.5000000000000000  0.5000000000000000  0.7071708137641082
  0.5000000000000000  0.0000000000000000  0.7900391392697514
  0.0000000000000000  0.5000000000000000  0.7900391392697514
  0.0000000000000000  0.0000000000000000  0.2099608607302486
  0.0000000000000000  0.0000000000000000  0.3756975117415351
  0.0000000000000000  0.0000000000000000  0.5414341627528216
  0.0000000000000000  0.0000000000000000  0.7071708137641082
  0.5000000000000000  0.5000000000000000  0.2928291862358918
  0.5000000000000000  0.5000000000000000  0.4585658372471784
  0.5000000000000000  0.5000000000000000  0.6243024882584649
  0.5000000000000000  0.5000000000000000  0.7900391392697514
 
  0.00000000E+00  0.00000000E+00  0.00000000E+00
  0.00000000E+00  0.00000000E+00  0.00000000E+00
  0.00000000E+00  0.00000000E+00  0.00000000E+00
  0.00000000E+00  0.00000000E+00  0.00000000E+00
  0.00000000E+00  0.00000000E+00  0.00000000E+00
  0.00000000E+00  0.00000000E+00  0.00000000E+00
  0.00000000E+00  0.00000000E+00  0.00000000E+00
  0.00000000E+00  0.00000000E+00  0.00000000E+00
  0.00000000E+00  0.00000000E+00  0.00000000E+00
  0.00000000E+00  0.00000000E+00  0.00000000E+00
  0.00000000E+00  0.00000000E+00  0.00000000E+00
  0.00000000E+00  0.00000000E+00  0.00000000E+00
  0.00000000E+00  0.00000000E+00  0.00000000E+00
  0.00000000E+00  0.00000000E+00  0.00000000E+00
  0.00000000E+00  0.00000000E+00  0.00000000E+00
  0.00000000E+00  0.00000000E+00  0.00000000E+00
  0.00000000E+00  0.00000000E+00  0.00000000E+00
  0.00000000E+00  0.00000000E+00  0.00000000E+00
  0.00000000E+00  0.00000000E+00  0.00000000E+00
  0.00000000E+00  0.00000000E+00  0.00000000E+00
