Pt_sc
2.6
1.0	0.0	0.0
0.0	1.0	0.0
0.0	0.0	1.0
Pt
1
Direct
0.0	0.0	0.0
