Pt  H 
 1.0000000000000000
     5.6257415511201732    0.0000000000000000    0.0000000000000000
     2.8128707755600866    4.8720350983957408    0.0000000000000000
     0.0000000000000000    0.0000000000000000   20.8900981125089942
  Pt   H
  16   1
Direct
  0.0000000000000000  0.0000000000000000  0.3350869853410788
  0.5000000000000000  0.0000000000000000  0.3350869853410788
  0.0000000000000000  0.5000000000000000  0.3350869853410788
  0.5000000000000001  0.5000000000000000  0.3350869853410788
  0.1666666666666667  0.1666666666666667  0.4450289951136930
  0.6666666666666667  0.1666666666666667  0.4450289951136930
  0.1666666666666667  0.6666666666666666  0.4450289951136930
  0.6666666666666666  0.6666666666666666  0.4450289951136930
  0.8333333333333334  0.3333333333333333  0.5549710048863070
  0.3333333333333333  0.3333333333333333  0.5549710048863070
  0.8333333333333334  0.8333333333333333  0.5549710048863070
  0.3333333333333334  0.8333333333333333  0.5549710048863070
  0.0000000000000000  0.0000000000000000  0.6649130146589212
  0.5000000000000000  0.0000000000000000  0.6649130146589212
  0.0000000000000000  0.5000000000000000  0.6649130146589212
  0.5000000000000001  0.5000000000000000  0.6649130146589212
  0.1666666666666667  0.1666666666666667  0.7127825839933609
