SiO2_P3221_icsd_34644                   
   1.00000000000000     
     4.9137000000000004    0.0000000000000000    0.0000000000000000
    -2.4568500000000002    4.2553890299999999    0.0000000000000000
     0.0000000000000000    0.0000000000000000    5.4051299999999998
   Si   O 
     3     6
Direct
  0.4697999999999993  0.0200000000000031  0.6666700000000034
  0.0000000000000000  0.4697999999999993  0.3333299999999966
  0.5302000000000007  0.5302000000000007  0.0000000000000000
  0.4144999999999968  0.2661999999999978  0.7856000000000023
  0.7338000000000022  0.1482999999999990  0.4522699999999986
  0.8517000000000010  0.5855000000000032  0.1189299999999989
  0.1482999999999990  0.7338000000000022  0.5477300000000014
  0.2661999999999978  0.4144999999999968  0.2143999999999977
  0.5855000000000032  0.8517000000000010  0.8810700000000011
 
  0.00000000E+00  0.00000000E+00  0.00000000E+00
  0.00000000E+00  0.00000000E+00  0.00000000E+00
  0.00000000E+00  0.00000000E+00  0.00000000E+00
  0.00000000E+00  0.00000000E+00  0.00000000E+00
  0.00000000E+00  0.00000000E+00  0.00000000E+00
  0.00000000E+00  0.00000000E+00  0.00000000E+00
  0.00000000E+00  0.00000000E+00  0.00000000E+00
  0.00000000E+00  0.00000000E+00  0.00000000E+00
  0.00000000E+00  0.00000000E+00  0.00000000E+00
