EntryWithCollCode54698
 1.0000000000000000
     3.1894000000000000    0.0000000000000000    0.0000000000000000
    -1.5946999999999993    2.7621014228300886    0.0000000000000000
     0.0000000000000003    0.0000000000000006    5.1861400000000000
  Ga   N
   2   2
Direct
  0.6667000000000001  0.3334000000000000  0.5000000000000000
  0.3333000000000000  0.6666000000000001  0.0000000000000000
  0.6667000000000001  0.3334000000000000  0.8789000000000000
  0.3333000000000000  0.6666000000000001  0.3789000000000000
