Cu  H                                   
   1.00000000000000     
     2.5738686835190334    0.0000000000000000    0.0000000000000000
     1.2869343417595167    2.2290356659326918    0.0000000000000000
     0.0000000000000000    0.0000000000000000   30.3046649395507117
   Cu   H 
     4     1
Selective dynamics
Direct
  0.0000000000000000  0.0000000000000000  0.3964401458257996   F   F   F
  0.3333333333333357  0.3333333333333357  0.4651517607925584   F   F   F
  0.6666666666666643  0.6666666666666643  0.5339162064971319   F   F   F
  0.0000000000000000  0.0000000000000000  0.6067440142404124   F   F   F
  0.3333333333333358  0.3333333333333356  0.6314676309010718   T   T   T
 
  0.00000000E+00  0.00000000E+00  0.00000000E+00
  0.00000000E+00  0.00000000E+00  0.00000000E+00
  0.00000000E+00  0.00000000E+00  0.00000000E+00
  0.00000000E+00  0.00000000E+00  0.00000000E+00
  0.00000000E+00  0.00000000E+00  0.00000000E+00
