 O Sr Ti 
 1.0000000000000000
     5.5228829703016524    0.0000000000000000    0.0000000000000000
     0.0000000000000000    3.9052680000000000    0.0000000000000000
     0.0000000000000000    0.0000000000000000   21.6650451980278902
   O  Sr  Ti
  12   4   4
Direct
  0.5000000000000001  0.0000000000000000  0.2769438025703340
  0.2500000000000001  0.5000000000000000  0.3406741446930957
  0.7500000000000002  0.5000000000000000  0.3406741446930957
  0.0000000000000002  0.0000000000000000  0.4044044868158574
  0.7500000000000002  0.5000000000000000  0.4681348289386191
  0.2500000000000002  0.5000000000000000  0.4681348289386191
  0.5000000000000004  0.0000000000000000  0.5318651710613809
  0.2500000000000002  0.5000000000000000  0.5955955131841426
  0.7500000000000006  0.5000000000000000  0.5955955131841426
  0.0000000000000004  0.0000000000000000  0.6593258553069042
  0.7500000000000006  0.5000000000000000  0.7230561974296660
  0.2500000000000004  0.5000000000000000  0.7230561974296660
  0.0000000000000000  0.0000000000000000  0.2769438025703340
  0.5000000000000001  0.0000000000000000  0.4044044868158574
  0.0000000000000002  0.0000000000000000  0.5318651710613809
  0.5000000000000004  0.0000000000000000  0.6593258553069042
  0.5000000000000001  0.5000000000000000  0.2769438025703340
  0.0000000000000002  0.5000000000000000  0.4044044868158574
  0.5000000000000004  0.5000000000000000  0.5318651710613809
  0.0000000000000004  0.5000000000000000  0.6593258553069042
