 O Sr Ti                                
   1.00000000000000     
     3.9468463416193540    0.0000000000000000    0.0000000000000000
     0.0000000000000000    3.9468463416193540    0.0000000000000000
     0.0000000000000000    0.0000000000000000   13.9734231708096779
   O    Sr   Ti
     3     1     1
Direct
  0.5000000000000000  0.5000000000000000  0.4293865523613363
  0.5000000000000000  0.0000000000000000  0.5706134476386637
  0.0000000000000000  0.5000000000000000  0.5706134476386637
  0.0000000000000000  0.0000000000000000  0.4293865523613363
  0.5000000000000000  0.5000000000000000  0.5706134476386637
 
  0.00000000E+00  0.00000000E+00  0.00000000E+00
  0.00000000E+00  0.00000000E+00  0.00000000E+00
  0.00000000E+00  0.00000000E+00  0.00000000E+00
  0.00000000E+00  0.00000000E+00  0.00000000E+00
  0.00000000E+00  0.00000000E+00  0.00000000E+00
