Cu                                      
   1.00000000000000     
     2.5738686835190334    0.0000000000000000    0.0000000000000000
     1.2869343417595167    2.2290356659326918    0.0000000000000000
     0.0000000000000000    0.0000000000000000   30.3046649395507117
   Cu
     4
Direct
 -0.0000000000000000  0.0000000000000000  0.3978672588555070
  0.3333333333333357  0.3333333333333357  0.4659894804362509
  0.6666666666666643  0.6666666666666643  0.5340105195637490
 -0.0000000000000000 -0.0000000000000000  0.6021327411444930
 
  0.00000000E+00  0.00000000E+00  0.00000000E+00
  0.00000000E+00  0.00000000E+00  0.00000000E+00
  0.00000000E+00  0.00000000E+00  0.00000000E+00
  0.00000000E+00  0.00000000E+00  0.00000000E+00
