 O Sr Ti                                
   1.00000000000000     
     3.9468463416193540    0.0000000000000000    0.0000000000000000
     0.0000000000000000    3.9468463416193540    0.0000000000000000
     0.0000000000000000    0.0000000000000000   29.7608085372870939
   O    Sr   Ti
    15     5     5
Direct
  0.5000000000000000  0.5000000000000000  0.2016074258359808
  0.5000000000000000  0.0000000000000000  0.2679168867613200
  0.0000000000000000  0.5000000000000000  0.2679168867613200
  0.5000000000000000  0.5000000000000000  0.3342263476866592
  0.5000000000000000  0.0000000000000000  0.4005358086119912
  0.0000000000000000  0.5000000000000000  0.4005358086119912
  0.5000000000000000  0.5000000000000000  0.4668452695373304
  0.5000000000000000  0.0000000000000000  0.5331547304626696
  0.0000000000000000  0.5000000000000000  0.5331547304626696
  0.5000000000000000  0.5000000000000000  0.5994641913880088
  0.5000000000000000  0.0000000000000000  0.6657736523133408
  0.0000000000000000  0.5000000000000000  0.6657736523133408
  0.5000000000000000  0.5000000000000000  0.7320831132386800
  0.5000000000000000  0.0000000000000000  0.7983925741640192
  0.0000000000000000  0.5000000000000000  0.7983925741640192
  0.0000000000000000  0.0000000000000000  0.2016074258359808
  0.0000000000000000  0.0000000000000000  0.3342263476866592
  0.0000000000000000  0.0000000000000000  0.4668452695373304
  0.0000000000000000  0.0000000000000000  0.5994641913880088
  0.0000000000000000  0.0000000000000000  0.7320831132386800
  0.5000000000000000  0.5000000000000000  0.2679168867613200
  0.5000000000000000  0.5000000000000000  0.4005358086119912
  0.5000000000000000  0.5000000000000000  0.5331547304626696
  0.5000000000000000  0.5000000000000000  0.6657736523133408
  0.5000000000000000  0.5000000000000000  0.7983925741640192
 
  0.00000000E+00  0.00000000E+00  0.00000000E+00
  0.00000000E+00  0.00000000E+00  0.00000000E+00
  0.00000000E+00  0.00000000E+00  0.00000000E+00
  0.00000000E+00  0.00000000E+00  0.00000000E+00
  0.00000000E+00  0.00000000E+00  0.00000000E+00
  0.00000000E+00  0.00000000E+00  0.00000000E+00
  0.00000000E+00  0.00000000E+00  0.00000000E+00
  0.00000000E+00  0.00000000E+00  0.00000000E+00
  0.00000000E+00  0.00000000E+00  0.00000000E+00
  0.00000000E+00  0.00000000E+00  0.00000000E+00
  0.00000000E+00  0.00000000E+00  0.00000000E+00
  0.00000000E+00  0.00000000E+00  0.00000000E+00
  0.00000000E+00  0.00000000E+00  0.00000000E+00
  0.00000000E+00  0.00000000E+00  0.00000000E+00
  0.00000000E+00  0.00000000E+00  0.00000000E+00
  0.00000000E+00  0.00000000E+00  0.00000000E+00
  0.00000000E+00  0.00000000E+00  0.00000000E+00
  0.00000000E+00  0.00000000E+00  0.00000000E+00
  0.00000000E+00  0.00000000E+00  0.00000000E+00
  0.00000000E+00  0.00000000E+00  0.00000000E+00
  0.00000000E+00  0.00000000E+00  0.00000000E+00
  0.00000000E+00  0.00000000E+00  0.00000000E+00
  0.00000000E+00  0.00000000E+00  0.00000000E+00
  0.00000000E+00  0.00000000E+00  0.00000000E+00
  0.00000000E+00  0.00000000E+00  0.00000000E+00
