 O Sr Ti 
 1.0000000000000000
     3.9468463416193540    0.0000000000000000    0.0000000000000000
     0.0000000000000000    3.9468463416193540    0.0000000000000000
     0.0000000000000000    0.0000000000000000   29.7608085372870939
   O  Sr  Ti
  15   5   5
Direct
  0.5000000000000000  0.5000000000000000  0.2016074258359831
  0.5000000000000000  0.0000000000000000  0.2679168867613202
  0.0000000000000000  0.5000000000000000  0.2679168867613202
  0.5000000000000000  0.5000000000000000  0.3342263476866573
  0.5000000000000000  0.0000000000000000  0.4005358086119943
  0.0000000000000000  0.5000000000000000  0.4005358086119943
  0.5000000000000000  0.5000000000000000  0.4668452695373315
  0.5000000000000000  0.0000000000000000  0.5331547304626686
  0.0000000000000000  0.5000000000000000  0.5331547304626686
  0.5000000000000000  0.5000000000000000  0.5994641913880056
  0.5000000000000000  0.0000000000000000  0.6657736523133425
  0.0000000000000000  0.5000000000000000  0.6657736523133425
  0.5000000000000000  0.5000000000000000  0.7320831132386798
  0.5000000000000000  0.0000000000000000  0.7983925741640169
  0.0000000000000000  0.5000000000000000  0.7983925741640169
  0.0000000000000000  0.0000000000000000  0.2016074258359831
  0.0000000000000000  0.0000000000000000  0.3342263476866573
  0.0000000000000000  0.0000000000000000  0.4668452695373315
  0.0000000000000000  0.0000000000000000  0.5994641913880056
  0.0000000000000000  0.0000000000000000  0.7320831132386798
  0.5000000000000000  0.5000000000000000  0.2679168867613202
  0.5000000000000000  0.5000000000000000  0.4005358086119943
  0.5000000000000000  0.5000000000000000  0.5331547304626686
  0.5000000000000000  0.5000000000000000  0.6657736523133425
  0.5000000000000000  0.5000000000000000  0.7983925741640169
