 O Sr Ti 
 1.0000000000000000
     3.9468463416193540    0.0000000000000000    0.0000000000000000
     0.0000000000000000    3.9468463416193540    0.0000000000000000
     0.0000000000000000    0.0000000000000000   25.8139621956677381
   O  Sr  Ti
  12   4   4
Direct
  0.5000000000000000  0.5000000000000000  0.2324323540307562
  0.5000000000000000  0.0000000000000000  0.3088802528791116
  0.0000000000000000  0.5000000000000000  0.3088802528791116
  0.5000000000000000  0.5000000000000000  0.3853281517274669
  0.5000000000000000  0.0000000000000000  0.4617760505758223
  0.0000000000000000  0.5000000000000000  0.4617760505758223
  0.5000000000000000  0.5000000000000000  0.5382239494241777
  0.5000000000000000  0.0000000000000000  0.6146718482725331
  0.0000000000000000  0.5000000000000000  0.6146718482725331
  0.5000000000000000  0.5000000000000000  0.6911197471208884
  0.5000000000000000  0.0000000000000000  0.7675676459692438
  0.0000000000000000  0.5000000000000000  0.7675676459692438
  0.0000000000000000  0.0000000000000000  0.2324323540307562
  0.0000000000000000  0.0000000000000000  0.3853281517274669
  0.0000000000000000  0.0000000000000000  0.5382239494241777
  0.0000000000000000  0.0000000000000000  0.6911197471208884
  0.5000000000000000  0.5000000000000000  0.3088802528791116
  0.5000000000000000  0.5000000000000000  0.4617760505758223
  0.5000000000000000  0.5000000000000000  0.6146718482725331
  0.5000000000000000  0.5000000000000000  0.7675676459692438
