ICSD_CollCode262269
 1.0000000000000000
     3.9052680000000000    0.0000000000000000    0.0000000000000000
     0.0000000000000000    3.9052680000000000    0.0000000000000000
     0.0000000000000000    0.0000000000000000    3.9052680000000000
  Sr  Ti   O
   1   1   3
Direct
  0.0000000000000000  0.0000000000000000  0.0000000000000000
  0.5000000000000000  0.5000000000000000  0.5000000000000000
  0.5000000000000000  0.5000000000000000  0.0000000000000000
  0.5000000000000000  0.0000000000000000  0.5000000000000000
  0.0000000000000000  0.5000000000000000  0.5000000000000000
