k-points along high symmetry lines
 10	0  ! # of points per line
Line-mode
reciprocal
  0.500  0.500  0.500  1  ! L -> Lambda ->
  0.000  0.000  0.000  1  ! Gamma

  0.000  0.000  0.000  1  ! Gamma -> Delta ->
  0.000  0.500  0.500  1  ! X

  0.500  1.000  0.500  1  ! X -> S -> K/U -> Sigma ->
  0.000  0.000  0.000  1  ! Gamma
