EntryWithCollCode247314
 1.0000000000000000
     5.5709999999999997    0.0000000000000000    0.0000000000000000
     0.0000000000000000    7.7660000000000000    0.0000000000000000
     0.0000000000000000    0.0000000000000000    5.5129999999999999
  Nb  Na   O
   4   4  12
Direct
  0.5000000000000000  0.0000000000000000  0.5000000000000000
  0.0000000000000000  0.5000000000000000  0.0000000000000000
  0.5000000000000000  0.5000000000000000  0.5000000000000000
  0.0000000000000000  0.0000000000000000  0.0000000000000000
  0.9958000000000000  0.2500000000000000  0.4974000000000001
  0.4958000000000000  0.2500000000000000  0.0026000000000000
  0.0042000000000000  0.7500000000000001  0.5026000000000000
  0.5042000000000000  0.7500000000000001  0.9974000000000000
  0.0110999999999999  0.2500000000000000  0.9381000000000000
  0.5111000000000000  0.2500000000000000  0.5619000000000000
  0.9889000000000000  0.7500000000000001  0.0619000000000001
  0.4889000000000000  0.7500000000000001  0.4381000000000000
  0.7158000000000000  0.0308000000000000  0.2183000000000000
  0.2158000000000000  0.4692000000000000  0.2817000000000000
  0.2842000000000000  0.5308000000000000  0.7817000000000001
  0.7841999999999999  0.9692000000000000  0.7182999999999999
  0.2842000000000000  0.9692000000000000  0.7817000000000001
  0.7841999999999999  0.5308000000000000  0.7182999999999999
  0.7158000000000000  0.4692000000000000  0.2183000000000000
  0.2158000000000000  0.0308000000000000  0.2817000000000000
