Pt_fcc                                  
   4.00000000000000     
     0.9945835430419506   -0.0000000000000000    0.0000000000000000
    -0.0000000000000000    0.9945835430419506    0.0000000000000000
    -0.0000000000000000   -0.0000000000000000    0.9945835430419506
   Pt
     4
Direct
 -0.0000000000000000 -0.0000000000000000  0.0000000000000000
  0.0000000000000000  0.5000000000000000  0.5000000000000000
  0.5000000000000000  0.0000000000000000  0.5000000000000000
  0.5000000000000000  0.5000000000000000 -0.0000000000000000
 
  0.00000000E+00  0.00000000E+00  0.00000000E+00
  0.00000000E+00  0.00000000E+00  0.00000000E+00
  0.00000000E+00  0.00000000E+00  0.00000000E+00
  0.00000000E+00  0.00000000E+00  0.00000000E+00
