 cell
       11.006257520000
     1.00000000000000     0.00000000000000     0.00000000000000 
     0.00000000000000     0.00000000000000     1.57715347914193 
     0.00000000000000    -1.00000000000000     0.00000000000000 
  Si Cr Mn Co Ni
  112 16 16 16 16
 Direct coordinates
   0.32679050000000   0.96092000000000   0.88523950000000  site   1 species 1: Si
   0.57780750000000   0.61288700000000   0.40045300000000  site   2 species 1: Si
   0.40045300000000   0.38711300000000   0.92219250000000  site   3 species 1: Si
   0.40045300000000   0.38711300000000   0.42219250000000  site   4 species 1: Si
   0.90045300000000   0.38711300000000   0.92219250000000  site   5 species 1: Si
   0.90045300000000   0.38711300000000   0.42219250000000  site   6 species 1: Si
   0.42058650000000   0.81744500000000   0.83935600000000  site   7 species 1: Si
   0.42058650000000   0.81744500000000   0.33935600000000  site   8 species 1: Si
   0.17320950000000   0.46092000000000   0.88523950000000  site   9 species 1: Si
   0.17320950000000   0.46092000000000   0.38523950000000  site  10 species 1: Si
   0.67320950000000   0.46092000000000   0.88523950000000  site  11 species 1: Si
   0.82679050000000   0.96092000000000   0.38523950000000  site  12 species 1: Si
   0.07941350000000   0.81744500000000   0.66064400000000  site  13 species 1: Si
   0.07941350000000   0.81744500000000   0.16064400000000  site  14 species 1: Si
   0.57941350000000   0.81744500000000   0.66064400000000  site  15 species 1: Si
   0.57941350000000   0.81744500000000   0.16064400000000  site  16 species 1: Si
   0.88523950000000   0.53908000000000   0.82679050000000  site  17 species 1: Si
   0.88523950000000   0.53908000000000   0.32679050000000  site  18 species 1: Si
   0.42058650000000   0.31744500000000   0.66064400000000  site  19 species 1: Si
   0.42058650000000   0.31744500000000   0.16064400000000  site  20 species 1: Si
   0.92058650000000   0.31744500000000   0.66064400000000  site  21 species 1: Si
   0.92058650000000   0.31744500000000   0.16064400000000  site  22 species 1: Si
   0.92058650000000   0.81744500000000   0.83935600000000  site  23 species 1: Si
   0.92058650000000   0.81744500000000   0.33935600000000  site  24 species 1: Si
   0.16692750000000   0.25000000000000   0.66692750000000  site  25 species 1: Si
   0.16692750000000   0.25000000000000   0.16692750000000  site  26 species 1: Si
   0.66692750000000   0.25000000000000   0.66692750000000  site  27 species 1: Si
   0.66692750000000   0.25000000000000   0.16692750000000  site  28 species 1: Si
   0.16692750000000   0.75000000000000   0.83307250000000  site  29 species 1: Si
   0.61476050000000   0.53908000000000   0.17320950000000  site  30 species 1: Si
   0.33935600000000   0.18255500000000   0.57941350000000  site  31 species 1: Si
   0.33935600000000   0.18255500000000   0.07941350000000  site  32 species 1: Si
   0.83935600000000   0.18255500000000   0.57941350000000  site  33 species 1: Si
   0.67320950000000   0.46092000000000   0.38523950000000  site  34 species 1: Si
   0.07780750000000   0.61288700000000   0.90045300000000  site  35 species 1: Si
   0.07780750000000   0.61288700000000   0.40045300000000  site  36 species 1: Si
   0.57780750000000   0.61288700000000   0.90045300000000  site  37 species 1: Si
   0.16692750000000   0.75000000000000   0.33307250000000  site  38 species 1: Si
   0.66692750000000   0.75000000000000   0.83307250000000  site  39 species 1: Si
   0.66692750000000   0.75000000000000   0.33307250000000  site  40 species 1: Si
   0.11476050000000   0.03908000000000   0.82679050000000  site  41 species 1: Si
   0.11476050000000   0.03908000000000   0.32679050000000  site  42 species 1: Si
   0.61476050000000   0.03908000000000   0.82679050000000  site  43 species 1: Si
   0.61476050000000   0.03908000000000   0.32679050000000  site  44 species 1: Si
   0.38523950000000   0.03908000000000   0.67320950000000  site  45 species 1: Si
   0.38523950000000   0.03908000000000   0.17320950000000  site  46 species 1: Si
   0.88523950000000   0.03908000000000   0.67320950000000  site  47 species 1: Si
   0.33935600000000   0.68255500000000   0.42058650000000  site  48 species 1: Si
   0.83935600000000   0.68255500000000   0.92058650000000  site  49 species 1: Si
   0.83935600000000   0.68255500000000   0.42058650000000  site  50 species 1: Si
   0.33307250000000   0.25000000000000   0.83307250000000  site  51 species 1: Si
   0.33307250000000   0.25000000000000   0.33307250000000  site  52 species 1: Si
   0.83307250000000   0.25000000000000   0.83307250000000  site  53 species 1: Si
   0.83307250000000   0.25000000000000   0.33307250000000  site  54 species 1: Si
   0.83307250000000   0.75000000000000   0.66692750000000  site  55 species 1: Si
   0.88523950000000   0.03908000000000   0.17320950000000  site  56 species 1: Si
   0.09954700000000   0.88711300000000   0.92219250000000  site  57 species 1: Si
   0.09954700000000   0.88711300000000   0.42219250000000  site  58 species 1: Si
   0.59954700000000   0.88711300000000   0.92219250000000  site  59 species 1: Si
   0.59954700000000   0.88711300000000   0.42219250000000  site  60 species 1: Si
   0.33307250000000   0.75000000000000   0.66692750000000  site  61 species 1: Si
   0.33307250000000   0.75000000000000   0.16692750000000  site  62 species 1: Si
   0.16064400000000   0.18255500000000   0.92058650000000  site  63 species 1: Si
   0.16064400000000   0.18255500000000   0.42058650000000  site  64 species 1: Si
   0.66064400000000   0.18255500000000   0.92058650000000  site  65 species 1: Si
   0.66064400000000   0.18255500000000   0.42058650000000  site  66 species 1: Si
   0.38523950000000   0.53908000000000   0.82679050000000  site  67 species 1: Si
   0.38523950000000   0.53908000000000   0.32679050000000  site  68 species 1: Si
   0.07780750000000   0.11288700000000   0.59954700000000  site  69 species 1: Si
   0.07780750000000   0.11288700000000   0.09954700000000  site  70 species 1: Si
   0.57780750000000   0.11288700000000   0.59954700000000  site  71 species 1: Si
   0.57780750000000   0.11288700000000   0.09954700000000  site  72 species 1: Si
   0.32679050000000   0.46092000000000   0.61476050000000  site  73 species 1: Si
   0.32679050000000   0.46092000000000   0.11476050000000  site  74 species 1: Si
   0.82679050000000   0.46092000000000   0.61476050000000  site  75 species 1: Si
   0.32679050000000   0.96092000000000   0.38523950000000  site  76 species 1: Si
   0.82679050000000   0.96092000000000   0.88523950000000  site  77 species 1: Si
   0.83307250000000   0.75000000000000   0.16692750000000  site  78 species 1: Si
   0.17320950000000   0.96092000000000   0.61476050000000  site  79 species 1: Si
   0.17320950000000   0.96092000000000   0.11476050000000  site  80 species 1: Si
   0.67320950000000   0.96092000000000   0.61476050000000  site  81 species 1: Si
   0.67320950000000   0.96092000000000   0.11476050000000  site  82 species 1: Si
   0.33935600000000   0.68255500000000   0.92058650000000  site  83 species 1: Si
   0.82679050000000   0.46092000000000   0.11476050000000  site  84 species 1: Si
   0.42219250000000   0.61288700000000   0.59954700000000  site  85 species 1: Si
   0.42219250000000   0.61288700000000   0.09954700000000  site  86 species 1: Si
   0.92219250000000   0.61288700000000   0.59954700000000  site  87 species 1: Si
   0.92219250000000   0.61288700000000   0.09954700000000  site  88 species 1: Si
   0.92219250000000   0.11288700000000   0.40045300000000  site  89 species 1: Si
   0.16064400000000   0.68255500000000   0.57941350000000  site  90 species 1: Si
   0.16064400000000   0.68255500000000   0.07941350000000  site  91 species 1: Si
   0.66064400000000   0.68255500000000   0.57941350000000  site  92 species 1: Si
   0.66064400000000   0.68255500000000   0.07941350000000  site  93 species 1: Si
   0.59954700000000   0.38711300000000   0.57780750000000  site  94 species 1: Si
   0.59954700000000   0.38711300000000   0.07780750000000  site  95 species 1: Si
   0.40045300000000   0.88711300000000   0.57780750000000  site  96 species 1: Si
   0.40045300000000   0.88711300000000   0.07780750000000  site  97 species 1: Si
   0.90045300000000   0.88711300000000   0.57780750000000  site  98 species 1: Si
   0.90045300000000   0.88711300000000   0.07780750000000  site  99 species 1: Si
   0.42219250000000   0.11288700000000   0.90045300000000  site 100 species 1: Si
   0.83935600000000   0.18255500000000   0.07941350000000  site 101 species 1: Si
   0.09954700000000   0.38711300000000   0.57780750000000  site 102 species 1: Si
   0.09954700000000   0.38711300000000   0.07780750000000  site 103 species 1: Si
   0.07941350000000   0.31744500000000   0.83935600000000  site 104 species 1: Si
   0.07941350000000   0.31744500000000   0.33935600000000  site 105 species 1: Si
   0.57941350000000   0.31744500000000   0.83935600000000  site 106 species 1: Si
   0.92219250000000   0.11288700000000   0.90045300000000  site 107 species 1: Si
   0.42219250000000   0.11288700000000   0.40045300000000  site 108 species 1: Si
   0.61476050000000   0.53908000000000   0.67320950000000  site 109 species 1: Si
   0.11476050000000   0.53908000000000   0.17320950000000  site 110 species 1: Si
   0.11476050000000   0.53908000000000   0.67320950000000  site 111 species 1: Si
   0.57941350000000   0.31744500000000   0.33935600000000  site 112 species 1: Si
   0.50000000000000   0.25000000000000   0.50000000000000  site 113 species 2: Cr
   0.25000000000000   0.80830700000000   0.50000000000000  site 114 species 2: Cr
   0.75000000000000   0.80830700000000   0.00000000000000  site 115 species 2: Cr
   0.00000000000000   0.93498800000000   0.75000000000000  site 116 species 2: Cr
   0.75000000000000   0.30830700000000   0.00000000000000  site 117 species 2: Cr
   0.25000000000000   0.30830700000000   0.50000000000000  site 118 species 2: Cr
   0.00000000000000   0.25000000000000   0.50000000000000  site 119 species 2: Cr
   0.25000000000000   0.56501200000000   0.00000000000000  site 120 species 2: Cr
   0.50000000000000   0.69169300000000   0.75000000000000  site 121 species 2: Cr
   0.50000000000000   0.19169300000000   0.25000000000000  site 122 species 2: Cr
   0.50000000000000   0.19169300000000   0.75000000000000  site 123 species 2: Cr
   0.00000000000000   0.50000000000000   0.50000000000000  site 124 species 2: Cr
   0.75000000000000   0.13009800000000   0.25000000000000  site 125 species 2: Cr
   0.50000000000000   0.00000000000000   0.50000000000000  site 126 species 2: Cr
   0.50000000000000   0.75000000000000   0.50000000000000  site 127 species 2: Cr
   0.75000000000000   0.06501200000000   0.00000000000000  site 128 species 2: Cr
   0.25000000000000   0.86990200000000   0.75000000000000  site 129 species 3: Mn
   0.75000000000000   0.56501200000000   0.00000000000000  site 130 species 3: Mn
   0.75000000000000   0.63009800000000   0.75000000000000  site 131 species 3: Mn
   0.00000000000000   0.69169300000000   0.75000000000000  site 132 species 3: Mn
   0.75000000000000   0.13009800000000   0.75000000000000  site 133 species 3: Mn
   0.25000000000000   0.06501200000000   0.50000000000000  site 134 species 3: Mn
   0.25000000000000   0.06501200000000   0.00000000000000  site 135 species 3: Mn
   0.50000000000000   0.50000000000000   0.50000000000000  site 136 species 3: Mn
   0.50000000000000   0.50000000000000   0.00000000000000  site 137 species 3: Mn
   0.50000000000000   0.43498800000000   0.25000000000000  site 138 species 3: Mn
   0.25000000000000   0.30830700000000   0.00000000000000  site 139 species 3: Mn
   0.00000000000000   0.75000000000000   0.50000000000000  site 140 species 3: Mn
   0.75000000000000   0.06501200000000   0.50000000000000  site 141 species 3: Mn
   0.00000000000000   0.00000000000000   0.00000000000000  site 142 species 3: Mn
   0.50000000000000   0.00000000000000   0.00000000000000  site 143 species 3: Mn
   0.25000000000000   0.63009800000000   0.75000000000000  site 144 species 3: Mn
   0.50000000000000   0.93498800000000   0.75000000000000  site 145 species 4: Co
   0.50000000000000   0.93498800000000   0.25000000000000  site 146 species 4: Co
   0.00000000000000   0.50000000000000   0.00000000000000  site 147 species 4: Co
   0.75000000000000   0.86990200000000   0.25000000000000  site 148 species 4: Co
   0.25000000000000   0.56501200000000   0.50000000000000  site 149 species 4: Co
   0.25000000000000   0.63009800000000   0.25000000000000  site 150 species 4: Co
   0.75000000000000   0.36990200000000   0.75000000000000  site 151 species 4: Co
   0.75000000000000   0.36990200000000   0.25000000000000  site 152 species 4: Co
   0.00000000000000   0.25000000000000   0.00000000000000  site 153 species 4: Co
   0.25000000000000   0.80830700000000   0.00000000000000  site 154 species 4: Co
   0.00000000000000   0.43498800000000   0.75000000000000  site 155 species 4: Co
   0.00000000000000   0.43498800000000   0.25000000000000  site 156 species 4: Co
   0.00000000000000   0.75000000000000   0.00000000000000  site 157 species 4: Co
   0.50000000000000   0.75000000000000   0.00000000000000  site 158 species 4: Co
   0.50000000000000   0.69169300000000   0.25000000000000  site 159 species 4: Co
   0.25000000000000   0.36990200000000   0.75000000000000  site 160 species 4: Co
   0.75000000000000   0.30830700000000   0.50000000000000  site 161 species 5: Ni
   0.00000000000000   0.69169300000000   0.25000000000000  site 162 species 5: Ni
   0.50000000000000   0.43498800000000   0.75000000000000  site 163 species 5: Ni
   0.00000000000000   0.19169300000000   0.25000000000000  site 164 species 5: Ni
   0.00000000000000   0.19169300000000   0.75000000000000  site 165 species 5: Ni
   0.25000000000000   0.13009800000000   0.75000000000000  site 166 species 5: Ni
   0.00000000000000   0.00000000000000   0.50000000000000  site 167 species 5: Ni
   0.25000000000000   0.13009800000000   0.25000000000000  site 168 species 5: Ni
   0.25000000000000   0.36990200000000   0.25000000000000  site 169 species 5: Ni
   0.75000000000000   0.63009800000000   0.25000000000000  site 170 species 5: Ni
   0.75000000000000   0.56501200000000   0.50000000000000  site 171 species 5: Ni
   0.50000000000000   0.25000000000000   0.00000000000000  site 172 species 5: Ni
   0.25000000000000   0.86990200000000   0.25000000000000  site 173 species 5: Ni
   0.75000000000000   0.80830700000000   0.50000000000000  site 174 species 5: Ni
   0.00000000000000   0.93498800000000   0.25000000000000  site 175 species 5: Ni
   0.75000000000000   0.86990200000000   0.75000000000000  site 176 species 5: Ni
