 O Sr Ti                                
   1.00000000000000     
     5.5816836249207240    0.0000000000000000    0.0000000000000000
     2.7908418124603620    4.8338798150689595    0.0000000000000000
     0.0000000000000000    0.0000000000000000   19.9754947922440849
   O    Sr   Ti
    12     4     4
Direct
  0.5003769652920851  0.5003769652920851  0.2982769745148330
  0.5003769652920851 -0.0007539305841693  0.2982769745148330
 -0.0007539305841693  0.5003769652920851  0.2982769745148330
  0.1659459742284931  0.1659459742284931  0.4184871994655116
  0.1659459742284931  0.6681080515430071  0.4184871994655116
  0.6681080515430068  0.1659459742284931  0.4184871994655116
  0.8346172048305865  0.8346172048305864  0.5403524954148868
  0.8346172048305864  0.3307655903388340  0.5403524954148868
  0.3307655903388340  0.8346172048305864  0.5403524954148868
  0.5031717764619906  0.5031717764619906  0.6604019144453200
  0.5031717764619904 -0.0063435529239809  0.6604019144453200
 -0.0063435529239809  0.5031717764619906  0.6604019144453200
  0.0000000000000000 -0.0000000000000000  0.2901607066470041
  0.6666666666666643  0.6666666666666643  0.3896247884601274
  0.3333333333333357  0.3333333333333357  0.5122232933645184
  0.0000000000000000 -0.0000000000000000  0.6335232385738695
  0.3333333333333357  0.3333333333333357  0.3391992699208412
  0.0000000000000000 -0.0000000000000000  0.4627432493828335
  0.6666666666666643  0.6666666666666643  0.5832983731934075
  0.3333333333333357  0.3333333333333357  0.6944450930176245
 
  0.00000000E+00  0.00000000E+00  0.00000000E+00
  0.00000000E+00  0.00000000E+00  0.00000000E+00
  0.00000000E+00  0.00000000E+00  0.00000000E+00
  0.00000000E+00  0.00000000E+00  0.00000000E+00
  0.00000000E+00  0.00000000E+00  0.00000000E+00
  0.00000000E+00  0.00000000E+00  0.00000000E+00
  0.00000000E+00  0.00000000E+00  0.00000000E+00
  0.00000000E+00  0.00000000E+00  0.00000000E+00
  0.00000000E+00  0.00000000E+00  0.00000000E+00
  0.00000000E+00  0.00000000E+00  0.00000000E+00
  0.00000000E+00  0.00000000E+00  0.00000000E+00
  0.00000000E+00  0.00000000E+00  0.00000000E+00
  0.00000000E+00  0.00000000E+00  0.00000000E+00
  0.00000000E+00  0.00000000E+00  0.00000000E+00
  0.00000000E+00  0.00000000E+00  0.00000000E+00
  0.00000000E+00  0.00000000E+00  0.00000000E+00
  0.00000000E+00  0.00000000E+00  0.00000000E+00
  0.00000000E+00  0.00000000E+00  0.00000000E+00
  0.00000000E+00  0.00000000E+00  0.00000000E+00
  0.00000000E+00  0.00000000E+00  0.00000000E+00
