 O Sr Ti 
 1.0000000000000000
     5.5816836249207240    0.0000000000000000    0.0000000000000000
     2.7908418124603620    4.8338798150689595    0.0000000000000000
     0.0000000000000000    0.0000000000000000   19.9754947922440849
   O  Sr  Ti
  12   4   4
Direct
  0.4999999999999999  0.5000000000000000  0.3003680290477525
  0.4999999999999999  0.9999999999999998  0.3003680290477525
  0.0000000000000000  0.5000000000000000  0.3003680290477525
  0.1666666666666670  0.1666666666666665  0.4144434410204654
  0.1666666666666670  0.6666666666666665  0.4144434410204654
  0.6666666666666669  0.1666666666666666  0.4144434410204654
  0.8333333333333335  0.8333333333333329  0.5285188529931782
  0.8333333333333336  0.3333333333333328  0.5285188529931784
  0.3333333333333335  0.8333333333333330  0.5285188529931782
  0.5000000000000000  0.4999999999999996  0.6425942649658911
  0.5000000000000000  0.9999999999999997  0.6425942649658911
  0.0000000000000000  0.4999999999999996  0.6425942649658911
  0.0000000000000000  0.0000000000000000  0.3003680290477525
  0.6666666666666667  0.6666666666666665  0.4144434410204654
  0.3333333333333335  0.3333333333333330  0.5285188529931782
  0.0000000000000004  0.9999999999999997  0.6425942649658911
  0.3333333333333334  0.3333333333333333  0.3574057350341089
  0.0000000000000002  0.9999999999999998  0.4714811470068218
  0.6666666666666670  0.6666666666666662  0.5855565589795346
  0.3333333333333330  0.3333333333333330  0.6996319709522475
