Cu  H                                   
   1.00000000000000     
     2.5738686835190334    0.0000000000000000    0.0000000000000000
     1.2869343417595167    2.2290356659326918    0.0000000000000000
     0.0000000000000000    0.0000000000000000   30.3046649395507117
   Cu   H 
     4     1
Direct
  0.0000000000000000  0.0000000000000000  0.3959786397221876
  0.3333333323456102  0.3333333339415674  0.4653262132456746
  0.6666666646912205  0.6666666678831277  0.5346737867691544
  0.0000000000000000  0.0000000000000000  0.6040213602926343
  0.0224312247507612  0.9551375504984776  0.6634181562509625
 
  0.00000000E+00  0.00000000E+00  0.00000000E+00
  0.00000000E+00  0.00000000E+00  0.00000000E+00
  0.00000000E+00  0.00000000E+00  0.00000000E+00
  0.00000000E+00  0.00000000E+00  0.00000000E+00
  0.00000000E+00  0.00000000E+00  0.00000000E+00
