 O Sr Ti 
 1.0000000000000000
     3.9052680000000000    0.0000000000000000    0.0000000000000000
     0.0000000000000000    3.9052680000000000    0.0000000000000000
     0.0000000000000000    0.0000000000000000   25.6684380000000019
   O  Sr  Ti
  12   4   4
Direct
  0.5000000000000000  0.5000000000000000  0.2337501019734820
  0.5000000000000000  0.0000000000000000  0.3098215014096300
  0.0000000000000000  0.5000000000000000  0.3098215014096300
  0.5000000000000000  0.5000000000000000  0.3858929008457780
  0.5000000000000000  0.0000000000000000  0.4619643002819260
  0.0000000000000000  0.5000000000000000  0.4619643002819260
  0.5000000000000000  0.5000000000000000  0.5380356997180740
  0.5000000000000000  0.0000000000000000  0.6141070991542220
  0.0000000000000000  0.5000000000000000  0.6141070991542220
  0.5000000000000000  0.5000000000000000  0.6901784985903701
  0.5000000000000000  0.0000000000000000  0.7662498980265180
  0.0000000000000000  0.5000000000000000  0.7662498980265180
  0.0000000000000000  0.0000000000000000  0.2337501019734820
  0.0000000000000000  0.0000000000000000  0.3858929008457780
  0.0000000000000000  0.0000000000000000  0.5380356997180740
  0.0000000000000000  0.0000000000000000  0.6901784985903701
  0.5000000000000000  0.5000000000000000  0.3098215014096300
  0.5000000000000000  0.5000000000000000  0.4619643002819260
  0.5000000000000000  0.5000000000000000  0.6141070991542220
  0.5000000000000000  0.5000000000000000  0.7662498980265180
