Pt_fcc                                  
   4.00000000000000     
     0.9943957518436016   -0.0000000000000000    0.0000000000000000
    -0.0000000000000000    0.9943957518436016    0.0000000000000000
     0.0000000000000000   -0.0000000000000000    0.9943957518436016
   Pt
     4
Direct
 -0.0000000000000000 -0.0000000000000000  0.0000000000000000
  0.0000000000000000  0.5000000000000000  0.5000000000000000
  0.5000000000000000  0.0000000000000000  0.5000000000000000
  0.5000000000000000  0.5000000000000000 -0.0000000000000000
 
  0.00000000E+00  0.00000000E+00  0.00000000E+00
  0.00000000E+00  0.00000000E+00  0.00000000E+00
  0.00000000E+00  0.00000000E+00  0.00000000E+00
  0.00000000E+00  0.00000000E+00  0.00000000E+00
