 O Sr Ti                                
   1.00000000000000     
     3.9468463416193540    0.0000000000000000    0.0000000000000000
     0.0000000000000000    3.9468463416193540    0.0000000000000000
     0.0000000000000000    0.0000000000000000   19.8139621956677381
   O    Sr   Ti
    12     4     4
Direct
  0.5000000000000000  0.5000000000000000  0.1514083841673965
  0.5000000000000000  0.0000000000000000  0.2510059886909985
  0.0000000000000000  0.5000000000000000  0.2510059886909985
  0.5000000000000000  0.5000000000000000  0.3506035932146006
  0.5000000000000000  0.0000000000000000  0.4502011977382026
  0.0000000000000000  0.5000000000000000  0.4502011977382026
  0.5000000000000000  0.5000000000000000  0.5497988022617974
  0.5000000000000000  0.0000000000000000  0.6493964067853994
  0.0000000000000000  0.5000000000000000  0.6493964067853994
  0.5000000000000000  0.5000000000000000  0.7489940113090015
  0.5000000000000000  0.0000000000000000  0.8485916158326035
  0.0000000000000000  0.5000000000000000  0.8485916158326035
  0.0000000000000000  0.0000000000000000  0.1514083841673965
  0.0000000000000000  0.0000000000000000  0.3506035932146006
  0.0000000000000000  0.0000000000000000  0.5497988022617974
  0.0000000000000000  0.0000000000000000  0.7489940113090015
  0.5000000000000000  0.5000000000000000  0.2510059886909985
  0.5000000000000000  0.5000000000000000  0.4502011977382026
  0.5000000000000000  0.5000000000000000  0.6493964067853994
  0.5000000000000000  0.5000000000000000  0.8485916158326035
 
  0.00000000E+00  0.00000000E+00  0.00000000E+00
  0.00000000E+00  0.00000000E+00  0.00000000E+00
  0.00000000E+00  0.00000000E+00  0.00000000E+00
  0.00000000E+00  0.00000000E+00  0.00000000E+00
  0.00000000E+00  0.00000000E+00  0.00000000E+00
  0.00000000E+00  0.00000000E+00  0.00000000E+00
  0.00000000E+00  0.00000000E+00  0.00000000E+00
  0.00000000E+00  0.00000000E+00  0.00000000E+00
  0.00000000E+00  0.00000000E+00  0.00000000E+00
  0.00000000E+00  0.00000000E+00  0.00000000E+00
  0.00000000E+00  0.00000000E+00  0.00000000E+00
  0.00000000E+00  0.00000000E+00  0.00000000E+00
  0.00000000E+00  0.00000000E+00  0.00000000E+00
  0.00000000E+00  0.00000000E+00  0.00000000E+00
  0.00000000E+00  0.00000000E+00  0.00000000E+00
  0.00000000E+00  0.00000000E+00  0.00000000E+00
  0.00000000E+00  0.00000000E+00  0.00000000E+00
  0.00000000E+00  0.00000000E+00  0.00000000E+00
  0.00000000E+00  0.00000000E+00  0.00000000E+00
  0.00000000E+00  0.00000000E+00  0.00000000E+00
