 O Sr Ti 
 1.0000000000000000
     3.9468463416193540    0.0000000000000000    0.0000000000000000
     0.0000000000000000    3.9468463416193540    0.0000000000000000
     0.0000000000000000    0.0000000000000000   19.8139621956677381
   O  Sr  Ti
  12   4   4
Direct
  0.5000000000000000  0.5000000000000000  0.1514083841673999
  0.5000000000000000  0.0000000000000000  0.2510059886909999
  0.0000000000000000  0.5000000000000000  0.2510059886909999
  0.5000000000000000  0.5000000000000000  0.3506035932146000
  0.5000000000000000  0.0000000000000000  0.4502011977381999
  0.0000000000000000  0.5000000000000000  0.4502011977381999
  0.5000000000000000  0.5000000000000000  0.5497988022618000
  0.5000000000000000  0.0000000000000000  0.6493964067854001
  0.0000000000000000  0.5000000000000000  0.6493964067854001
  0.5000000000000000  0.5000000000000000  0.7489940113090001
  0.5000000000000000  0.0000000000000000  0.8485916158326000
  0.0000000000000000  0.5000000000000000  0.8485916158326000
  0.0000000000000000  0.0000000000000000  0.1514083841673999
  0.0000000000000000  0.0000000000000000  0.3506035932146000
  0.0000000000000000  0.0000000000000000  0.5497988022618000
  0.0000000000000000  0.0000000000000000  0.7489940113090001
  0.5000000000000000  0.5000000000000000  0.2510059886909999
  0.5000000000000000  0.5000000000000000  0.4502011977381999
  0.5000000000000000  0.5000000000000000  0.6493964067854001
  0.5000000000000000  0.5000000000000000  0.8485916158326000
