NaCoO2 P 63/m m c                       
   1.00000000000000     
     2.4966646369999999    1.4414499999999999    0.0000000000000000
    -2.4966646369999999    1.4414499999999999    0.0000000000000000
     0.0000000000000000    0.0000000000000000   10.4926999999999992
   Na   Co   O 
   2   2   4
Direct
  0.6666669999999968  0.3333330000000032  0.2500000000000000
  0.3333330000000032  0.6666669999999968  0.7500000000000000
  0.0000000000000000  0.0000000000000000  0.0000000000000000
  0.0000000000000000  0.0000000000000000  0.5000000000000000
  0.3333330000000032  0.6666669999999968  0.0946579313928288
  0.6666669999999968  0.3333330000000032  0.9053420686071713
  0.6666669999999968  0.3333330000000032  0.5946579313928287
  0.3333330000000032  0.6666669999999968  0.4053420686071713
 
  0.00000000E+00  0.00000000E+00  0.00000000E+00
  0.00000000E+00  0.00000000E+00  0.00000000E+00
  0.00000000E+00  0.00000000E+00  0.00000000E+00
  0.00000000E+00  0.00000000E+00  0.00000000E+00
  0.00000000E+00  0.00000000E+00  0.00000000E+00
  0.00000000E+00  0.00000000E+00  0.00000000E+00
  0.00000000E+00  0.00000000E+00  0.00000000E+00
  0.00000000E+00  0.00000000E+00  0.00000000E+00
