 O Sr Ti 
 1.0000000000000000
     5.5816836249207240    0.0000000000000000    0.0000000000000000
     0.0000000000000000    3.9468463416193540    0.0000000000000000
     0.0000000000000000    0.0000000000000000   21.7679463436112712
   O  Sr  Ti
  12   4   4
Direct
  0.5000000000000000  0.0000000000000000  0.2756346375210978
  0.2500000000000000  0.5000000000000000  0.3397390268007842
  0.7500000000000000  0.5000000000000000  0.3397390268007842
  0.0000000000000000  0.0000000000000000  0.4038434160804705
  0.7500000000000000  0.5000000000000000  0.4679478053601568
  0.2500000000000000  0.5000000000000000  0.4679478053601568
  0.5000000000000000  0.0000000000000000  0.5320521946398431
  0.2500000000000000  0.5000000000000000  0.5961565839195294
  0.7499999999999998  0.5000000000000000  0.5961565839195294
  0.9999999999999999  0.0000000000000000  0.6602609731992158
  0.7499999999999998  0.5000000000000000  0.7243653624789020
  0.2500000000000000  0.5000000000000000  0.7243653624789022
  0.0000000000000000  0.0000000000000000  0.2756346375210978
  0.5000000000000000  0.0000000000000000  0.4038434160804705
  0.0000000000000000  0.0000000000000000  0.5320521946398431
  0.5000000000000000  0.0000000000000000  0.6602609731992158
  0.5000000000000000  0.5000000000000000  0.2756346375210978
  0.0000000000000000  0.5000000000000000  0.4038434160804705
  0.5000000000000000  0.5000000000000000  0.5320521946398431
  0.9999999999999999  0.5000000000000000  0.6602609731992158
