 O Sr Ti                                
   1.00000000000000     
     3.9468463416193540    0.0000000000000000    0.0000000000000000
     0.0000000000000000    3.9468463416193540    0.0000000000000000
     0.0000000000000000    0.0000000000000000   25.8139621956677381
   O    Sr   Ti
    12     4     4
Direct
  0.5000000000000000  0.5000000000000000  0.2309848000539043
  0.5000000000000000  0.0000000000000000  0.3073675730136002
 -0.0000000000000000  0.5000000000000000  0.3073675730136002
  0.5000000000000000  0.5000000000000000  0.3850981878390102
  0.5000000000000000  0.0000000000000000  0.4616941120389277
  0.0000000000000000  0.5000000000000000  0.4616941120389277
  0.5000000000000000  0.5000000000000000  0.5382080489378684
  0.5000000000000000 -0.0000000000000000  0.6145653381174356
 -0.0000000000000000  0.5000000000000000  0.6145653381174356
  0.5000000000000000  0.5000000000000000  0.6913734774058881
  0.5000000000000000 -0.0000000000000000  0.7672036575464702
 -0.0000000000000000  0.5000000000000000  0.7672036575464702
 -0.0000000000000000  0.0000000000000000  0.2396187057484410
 -0.0000000000000000 -0.0000000000000000  0.3870195348466727
 -0.0000000000000000 -0.0000000000000000  0.5392824442023466
  0.0000000000000000  0.0000000000000000  0.6967424601658497
  0.5000000000000000  0.5000000000000000  0.3054472488066174
  0.5000000000000000  0.5000000000000000  0.4607667359457704
  0.5000000000000000  0.5000000000000000  0.6133291607620429
  0.5000000000000000  0.5000000000000000  0.7633636315494353
 
  0.00000000E+00  0.00000000E+00  0.00000000E+00
  0.00000000E+00  0.00000000E+00  0.00000000E+00
  0.00000000E+00  0.00000000E+00  0.00000000E+00
  0.00000000E+00  0.00000000E+00  0.00000000E+00
  0.00000000E+00  0.00000000E+00  0.00000000E+00
  0.00000000E+00  0.00000000E+00  0.00000000E+00
  0.00000000E+00  0.00000000E+00  0.00000000E+00
  0.00000000E+00  0.00000000E+00  0.00000000E+00
  0.00000000E+00  0.00000000E+00  0.00000000E+00
  0.00000000E+00  0.00000000E+00  0.00000000E+00
  0.00000000E+00  0.00000000E+00  0.00000000E+00
  0.00000000E+00  0.00000000E+00  0.00000000E+00
  0.00000000E+00  0.00000000E+00  0.00000000E+00
  0.00000000E+00  0.00000000E+00  0.00000000E+00
  0.00000000E+00  0.00000000E+00  0.00000000E+00
  0.00000000E+00  0.00000000E+00  0.00000000E+00
  0.00000000E+00  0.00000000E+00  0.00000000E+00
  0.00000000E+00  0.00000000E+00  0.00000000E+00
  0.00000000E+00  0.00000000E+00  0.00000000E+00
  0.00000000E+00  0.00000000E+00  0.00000000E+00
