c-nanotube-6-6
    1.0     
    18.2        0.0     0.0
     0.0       18.2     0.0
     0.0        0.0     2.464040
   C
   24
Cartesian
   4.085165    -0.000000    -1.231010
   3.838021     1.399343    -1.231010
   3.537856     2.042582     0.000000
   2.624152     3.130877     0.000000
   2.042582     3.537856    -1.231010
   0.707144     4.023496    -1.231010
   0.000000     4.085165     0.000000
  -1.399343     3.838021     0.000000
  -2.042582     3.537856    -1.231010
  -3.130877     2.624152    -1.231010
  -3.537856     2.042582     0.000000
  -4.023496     0.707144     0.000000
  -4.085165     0.000000    -1.231010
  -3.838021    -1.399343    -1.231010
  -3.537856    -2.042582     0.000000
  -2.624152    -3.130877     0.000000
  -2.042582    -3.537856    -1.231010
  -0.707144    -4.023496    -1.231010
  -0.000000    -4.085165     0.000000
   1.399343    -3.838021     0.000000
   2.042582    -3.537856    -1.231010
   3.130877    -2.624152    -1.231010
   3.537856    -2.042582     0.000000
   4.023496    -0.707144     0.000000
