 cell
        1.000000000000
     0.00000000000000     5.10000000000000     8.50000000000000 
    -5.10000000000000     6.80000000000000    -5.10000000000000 
    -8.50000000000000    -5.10000000000000     0.00000000000000 
  Cr Mn Fe Co Ni
  19 19 19 19 19
 Direct coordinates
   0.76842105263158   0.94736842105263   0.03157894736842  site  1 species 1: Cr
   0.92631578947368   0.21052631578947   0.87368421052632  site  2 species 1: Cr
   0.53684210526316   0.89473684210526   0.06315789473684  site  3 species 1: Cr
   0.50526315789474   0.84210526315789   0.29473684210526  site  4 species 1: Cr
   0.36842105263158   0.94736842105263   0.63157894736842  site  5 species 1: Cr
   0.66315789473684   0.10526315789474   0.13684210526316  site  6 species 1: Cr
   0.63157894736842   0.05263157894737   0.36842105263158  site  7 species 1: Cr
   0.98947368421053   0.31578947368421   0.41052631578947  site  8 species 1: Cr
   0.96842105263158   0.94736842105263   0.23157894736842  site  9 species 1: Cr
   0.20000000000000   0.00000000000000   0.20000000000000  site 10 species 1: Cr
   0.09473684210526   0.15789473684211   0.30526315789474  site 11 species 1: Cr
   0.06315789473684   0.10526315789474   0.53684210526316  site 12 species 1: Cr
   0.00000000000000   0.00000000000000   0.00000000000000  site 13 species 1: Cr
   0.71578947368421   0.52631578947368   0.08421052631579  site 14 species 1: Cr
   0.27368421052632   0.78947368421053   0.32631578947368  site 15 species 1: Cr
   0.13684210526316   0.89473684210526   0.66315789473684  site 16 species 1: Cr
   0.80000000000000   0.00000000000000   0.80000000000000  site 17 species 1: Cr
   0.28421052631579   0.47368421052632   0.91578947368421  site 18 species 1: Cr
   0.86315789473684   0.10526315789474   0.33684210526316  site 19 species 1: Cr
   0.75789473684211   0.26315789473684   0.44210526315789  site 20 species 2: Mn
   0.21052631578947   0.68421052631579   0.78947368421053  site 21 species 2: Mn
   0.37894736842105   0.63157894736842   0.22105263157895  site 22 species 2: Mn
   0.05263157894737   0.42105263157895   0.94736842105263  site 23 species 2: Mn
   0.01052631578947   0.68421052631579   0.58947368421053  site 24 species 2: Mn
   0.65263157894737   0.42105263157895   0.54736842105263  site 25 species 2: Mn
   0.31578947368421   0.52631578947368   0.68421052631579  site 26 species 2: Mn
   0.29473684210526   0.15789473684211   0.50526315789474  site 27 species 2: Mn
   0.03157894736842   0.05263157894737   0.76842105263158  site 28 species 2: Mn
   0.14736842105263   0.57894736842105   0.25263157894737  site 29 species 2: Mn
   0.43157894736842   0.05263157894737   0.16842105263158  site 30 species 2: Mn
   0.15789473684211   0.26315789473684   0.84210526315789  site 31 species 2: Mn
   0.41052631578947   0.68421052631579   0.98947368421053  site 32 species 2: Mn
   0.84210526315789   0.73684210526316   0.15789473684211  site 33 species 2: Mn
   0.81052631578947   0.68421052631579   0.38947368421053  site 34 species 2: Mn
   0.83157894736842   0.05263157894737   0.56842105263158  site 35 species 2: Mn
   0.33684210526316   0.89473684210526   0.86315789473684  site 36 species 2: Mn
   0.48421052631579   0.47368421052632   0.11578947368421  site 37 species 2: Mn
   0.26315789473684   0.10526315789474   0.73684210526316  site 38 species 2: Mn
   0.22105263157895   0.36842105263158   0.37894736842105  site 39 species 3: Fe
   0.25263157894737   0.42105263157895   0.14736842105263  site 40 species 3: Fe
   0.17894736842105   0.63157894736842   0.02105263157895  site 41 species 3: Fe
   0.24210526315789   0.73684210526316   0.55789473684211  site 42 species 3: Fe
   0.10526315789474   0.84210526315789   0.89473684210526  site 43 species 3: Fe
   0.40000000000000   0.00000000000000   0.40000000000000  site 44 species 3: Fe
   0.60000000000000   0.00000000000000   0.60000000000000  site 45 species 3: Fe
   0.58947368421053   0.31578947368421   0.01052631578947  site 46 species 3: Fe
   0.49473684210526   0.15789473684211   0.70526315789474  site 47 species 3: Fe
   0.46315789473684   0.10526315789474   0.93684210526316  site 48 species 3: Fe
   0.45263157894737   0.42105263157895   0.34736842105263  site 49 species 3: Fe
   0.42105263157895   0.36842105263158   0.57894736842105  site 50 species 3: Fe
   0.02105263157895   0.36842105263158   0.17894736842105  site 51 species 3: Fe
   0.64210526315789   0.73684210526316   0.95789473684211  site 52 species 3: Fe
   0.44210526315789   0.73684210526316   0.75789473684211  site 53 species 3: Fe
   0.93684210526316   0.89473684210526   0.46315789473684  site 54 species 3: Fe
   0.61052631578947   0.68421052631579   0.18947368421053  site 55 species 3: Fe
   0.82105263157895   0.36842105263158   0.97894736842105  site 56 species 3: Fe
   0.62105263157895   0.36842105263158   0.77894736842105  site 57 species 3: Fe
   0.94736842105263   0.57894736842105   0.05263157894737  site 58 species 4: Co
   0.87368421052632   0.78947368421053   0.92631578947368  site 59 species 4: Co
   0.34736842105263   0.57894736842105   0.45263157894737  site 60 species 4: Co
   0.08421052631579   0.47368421052632   0.71578947368421  site 61 species 4: Co
   0.07368421052632   0.78947368421053   0.12631578947368  site 62 species 4: Co
   0.16842105263158   0.94736842105263   0.43157894736842  site 63 species 4: Co
   0.78947368421053   0.31578947368421   0.21052631578947  site 64 species 4: Co
   0.47368421052632   0.78947368421053   0.52631578947368  site 65 species 4: Co
   0.54736842105263   0.57894736842105   0.65263157894737  site 66 species 4: Co
   0.52631578947368   0.21052631578947   0.47368421052632  site 67 species 4: Co
   0.85263157894737   0.42105263157895   0.74736842105263  site 68 species 4: Co
   0.91578947368421   0.52631578947368   0.28421052631579  site 69 species 4: Co
   0.77894736842105   0.63157894736842   0.62105263157895  site 70 species 4: Co
   0.74736842105263   0.57894736842105   0.85263157894737  site 71 species 4: Co
   0.70526315789474   0.84210526315789   0.49473684210526  site 72 species 4: Co
   0.73684210526316   0.89473684210526   0.26315789473684  site 73 species 4: Co
   0.12631578947368   0.21052631578947   0.07368421052632  site 74 species 4: Co
   0.32631578947368   0.21052631578947   0.27368421052632  site 75 species 4: Co
   0.11578947368421   0.52631578947368   0.48421052631579  site 76 species 4: Co
   0.51578947368421   0.52631578947368   0.88421052631579  site 77 species 5: Ni
   0.23157894736842   0.05263157894737   0.96842105263158  site 78 species 5: Ni
   0.72631578947368   0.21052631578947   0.67368421052632  site 79 species 5: Ni
   0.69473684210526   0.15789473684211   0.90526315789474  site 80 species 5: Ni
   0.68421052631579   0.47368421052632   0.31578947368421  site 81 species 5: Ni
   0.30526315789474   0.84210526315789   0.09473684210526  site 82 species 5: Ni
   0.18947368421053   0.31578947368421   0.61052631578947  site 83 species 5: Ni
   0.04210526315789   0.73684210526316   0.35789473684211  site 84 species 5: Ni
   0.90526315789474   0.84210526315789   0.69473684210526  site 85 species 5: Ni
   0.97894736842105   0.63157894736842   0.82105263157895  site 86 species 5: Ni
   0.89473684210526   0.15789473684211   0.10526315789474  site 87 species 5: Ni
   0.38947368421053   0.31578947368421   0.81052631578947  site 88 species 5: Ni
   0.95789473684211   0.26315789473684   0.64210526315789  site 89 species 5: Ni
   0.56842105263158   0.94736842105263   0.83157894736842  site 90 species 5: Ni
   0.67368421052632   0.78947368421053   0.72631578947368  site 91 species 5: Ni
   0.88421052631579   0.47368421052632   0.51578947368421  site 92 species 5: Ni
   0.35789473684211   0.26315789473684   0.04210526315789  site 93 species 5: Ni
   0.55789473684211   0.26315789473684   0.24210526315789  site 94 species 5: Ni
   0.57894736842105   0.63157894736842   0.42105263157895  site 95 species 5: Ni
