 cell
       17.000000000000
     0.00000000000000     0.50000000000000     0.50000000000000 
     0.50000000000000     0.00000000000000     0.50000000000000 
     0.50000000000000     0.50000000000000     0.00000000000000 
  Cr Mn Fe Co Ni
  25 25 25 25 25
 Direct coordinates
   0.60000000000000   0.80000000000000   0.60000000000000  site   1 species 1: Cr
   0.20000000000000   0.60000000000000   0.60000000000000  site   2 species 1: Cr
   0.80000000000000   0.00000000000000   0.60000000000000  site   3 species 1: Cr
   0.00000000000000   0.60000000000000   0.40000000000000  site   4 species 1: Cr
   0.80000000000000   0.20000000000000   0.00000000000000  site   5 species 1: Cr
   0.40000000000000   0.80000000000000   0.80000000000000  site   6 species 1: Cr
   0.00000000000000   0.40000000000000   0.80000000000000  site   7 species 1: Cr
   0.60000000000000   0.20000000000000   0.60000000000000  site   8 species 1: Cr
   0.60000000000000   0.80000000000000   0.00000000000000  site   9 species 1: Cr
   0.60000000000000   0.00000000000000   0.80000000000000  site  10 species 1: Cr
   0.60000000000000   0.80000000000000   0.20000000000000  site  11 species 1: Cr
   0.20000000000000   0.60000000000000   0.00000000000000  site  12 species 1: Cr
   0.00000000000000   0.80000000000000   0.80000000000000  site  13 species 1: Cr
   0.60000000000000   0.00000000000000   0.00000000000000  site  14 species 1: Cr
   0.80000000000000   0.60000000000000   0.60000000000000  site  15 species 1: Cr
   0.80000000000000   0.60000000000000   0.80000000000000  site  16 species 1: Cr
   0.00000000000000   0.20000000000000   0.20000000000000  site  17 species 1: Cr
   0.40000000000000   0.00000000000000   0.40000000000000  site  18 species 1: Cr
   0.40000000000000   0.20000000000000   0.20000000000000  site  19 species 1: Cr
   0.40000000000000   0.20000000000000   0.40000000000000  site  20 species 1: Cr
   0.40000000000000   0.40000000000000   0.00000000000000  site  21 species 1: Cr
   0.40000000000000   0.60000000000000   0.60000000000000  site  22 species 1: Cr
   0.40000000000000   0.60000000000000   0.80000000000000  site  23 species 1: Cr
   0.00000000000000   0.40000000000000   0.60000000000000  site  24 species 1: Cr
   0.40000000000000   0.00000000000000   0.20000000000000  site  25 species 1: Cr
   0.60000000000000   0.20000000000000   0.00000000000000  site  26 species 2: Mn
   0.60000000000000   0.60000000000000   0.00000000000000  site  27 species 2: Mn
   0.20000000000000   0.20000000000000   0.80000000000000  site  28 species 2: Mn
   0.40000000000000   0.40000000000000   0.80000000000000  site  29 species 2: Mn
   0.40000000000000   0.60000000000000   0.20000000000000  site  30 species 2: Mn
   0.40000000000000   0.00000000000000   0.00000000000000  site  31 species 2: Mn
   0.20000000000000   0.60000000000000   0.80000000000000  site  32 species 2: Mn
   0.20000000000000   0.60000000000000   0.40000000000000  site  33 species 2: Mn
   0.00000000000000   0.80000000000000   0.40000000000000  site  34 species 2: Mn
   0.80000000000000   0.00000000000000   0.00000000000000  site  35 species 2: Mn
   0.80000000000000   0.00000000000000   0.80000000000000  site  36 species 2: Mn
   0.00000000000000   0.60000000000000   0.00000000000000  site  37 species 2: Mn
   0.00000000000000   0.00000000000000   0.40000000000000  site  38 species 2: Mn
   0.80000000000000   0.40000000000000   0.40000000000000  site  39 species 2: Mn
   0.80000000000000   0.80000000000000   0.40000000000000  site  40 species 2: Mn
   0.80000000000000   0.80000000000000   0.20000000000000  site  41 species 2: Mn
   0.80000000000000   0.80000000000000   0.00000000000000  site  42 species 2: Mn
   0.80000000000000   0.80000000000000   0.80000000000000  site  43 species 2: Mn
   0.20000000000000   0.20000000000000   0.20000000000000  site  44 species 2: Mn
   0.60000000000000   0.60000000000000   0.60000000000000  site  45 species 2: Mn
   0.20000000000000   0.00000000000000   0.80000000000000  site  46 species 2: Mn
   0.20000000000000   0.00000000000000   0.40000000000000  site  47 species 2: Mn
   0.80000000000000   0.80000000000000   0.60000000000000  site  48 species 2: Mn
   0.60000000000000   0.80000000000000   0.40000000000000  site  49 species 2: Mn
   0.00000000000000   0.80000000000000   0.60000000000000  site  50 species 2: Mn
   0.40000000000000   0.40000000000000   0.40000000000000  site  51 species 3: Fe
   0.40000000000000   0.40000000000000   0.20000000000000  site  52 species 3: Fe
   0.60000000000000   0.60000000000000   0.40000000000000  site  53 species 3: Fe
   0.60000000000000   0.40000000000000   0.20000000000000  site  54 species 3: Fe
   0.60000000000000   0.00000000000000   0.40000000000000  site  55 species 3: Fe
   0.40000000000000   0.80000000000000   0.00000000000000  site  56 species 3: Fe
   0.80000000000000   0.20000000000000   0.20000000000000  site  57 species 3: Fe
   0.40000000000000   0.60000000000000   0.40000000000000  site  58 species 3: Fe
   0.80000000000000   0.40000000000000   0.80000000000000  site  59 species 3: Fe
   0.80000000000000   0.60000000000000   0.40000000000000  site  60 species 3: Fe
   0.00000000000000   0.40000000000000   0.00000000000000  site  61 species 3: Fe
   0.20000000000000   0.80000000000000   0.00000000000000  site  62 species 3: Fe
   0.20000000000000   0.60000000000000   0.20000000000000  site  63 species 3: Fe
   0.00000000000000   0.40000000000000   0.40000000000000  site  64 species 3: Fe
   0.20000000000000   0.40000000000000   0.80000000000000  site  65 species 3: Fe
   0.20000000000000   0.40000000000000   0.60000000000000  site  66 species 3: Fe
   0.00000000000000   0.60000000000000   0.80000000000000  site  67 species 3: Fe
   0.20000000000000   0.40000000000000   0.20000000000000  site  68 species 3: Fe
   0.00000000000000   0.80000000000000   0.00000000000000  site  69 species 3: Fe
   0.00000000000000   0.80000000000000   0.20000000000000  site  70 species 3: Fe
   0.00000000000000   0.20000000000000   0.40000000000000  site  71 species 3: Fe
   0.40000000000000   0.00000000000000   0.80000000000000  site  72 species 3: Fe
   0.00000000000000   0.20000000000000   0.60000000000000  site  73 species 3: Fe
   0.00000000000000   0.20000000000000   0.80000000000000  site  74 species 3: Fe
   0.20000000000000   0.80000000000000   0.80000000000000  site  75 species 3: Fe
   0.00000000000000   0.00000000000000   0.80000000000000  site  76 species 4: Co
   0.00000000000000   0.00000000000000   0.60000000000000  site  77 species 4: Co
   0.60000000000000   0.80000000000000   0.80000000000000  site  78 species 4: Co
   0.00000000000000   0.00000000000000   0.20000000000000  site  79 species 4: Co
   0.20000000000000   0.00000000000000   0.00000000000000  site  80 species 4: Co
   0.20000000000000   0.00000000000000   0.20000000000000  site  81 species 4: Co
   0.60000000000000   0.60000000000000   0.80000000000000  site  82 species 4: Co
   0.20000000000000   0.20000000000000   0.00000000000000  site  83 species 4: Co
   0.20000000000000   0.20000000000000   0.40000000000000  site  84 species 4: Co
   0.80000000000000   0.60000000000000   0.20000000000000  site  85 species 4: Co
   0.80000000000000   0.20000000000000   0.80000000000000  site  86 species 4: Co
   0.80000000000000   0.40000000000000   0.20000000000000  site  87 species 4: Co
   0.00000000000000   0.60000000000000   0.20000000000000  site  88 species 4: Co
   0.00000000000000   0.40000000000000   0.20000000000000  site  89 species 4: Co
   0.80000000000000   0.40000000000000   0.60000000000000  site  90 species 4: Co
   0.80000000000000   0.00000000000000   0.40000000000000  site  91 species 4: Co
   0.80000000000000   0.00000000000000   0.20000000000000  site  92 species 4: Co
   0.40000000000000   0.00000000000000   0.60000000000000  site  93 species 4: Co
   0.40000000000000   0.60000000000000   0.00000000000000  site  94 species 4: Co
   0.20000000000000   0.80000000000000   0.40000000000000  site  95 species 4: Co
   0.20000000000000   0.80000000000000   0.20000000000000  site  96 species 4: Co
   0.20000000000000   0.40000000000000   0.00000000000000  site  97 species 4: Co
   0.60000000000000   0.40000000000000   0.40000000000000  site  98 species 4: Co
   0.40000000000000   0.20000000000000   0.00000000000000  site  99 species 4: Co
   0.60000000000000   0.40000000000000   0.80000000000000  site 100 species 4: Co
   0.40000000000000   0.80000000000000   0.20000000000000  site 101 species 5: Ni
   0.40000000000000   0.80000000000000   0.40000000000000  site 102 species 5: Ni
   0.80000000000000   0.40000000000000   0.00000000000000  site 103 species 5: Ni
   0.80000000000000   0.60000000000000   0.00000000000000  site 104 species 5: Ni
   0.20000000000000   0.80000000000000   0.60000000000000  site 105 species 5: Ni
   0.40000000000000   0.40000000000000   0.60000000000000  site 106 species 5: Ni
   0.00000000000000   0.20000000000000   0.00000000000000  site 107 species 5: Ni
   0.40000000000000   0.20000000000000   0.60000000000000  site 108 species 5: Ni
   0.40000000000000   0.20000000000000   0.80000000000000  site 109 species 5: Ni
   0.00000000000000   0.00000000000000   0.00000000000000  site 110 species 5: Ni
   0.60000000000000   0.20000000000000   0.20000000000000  site 111 species 5: Ni
   0.60000000000000   0.20000000000000   0.40000000000000  site 112 species 5: Ni
   0.60000000000000   0.20000000000000   0.80000000000000  site 113 species 5: Ni
   0.60000000000000   0.40000000000000   0.00000000000000  site 114 species 5: Ni
   0.60000000000000   0.40000000000000   0.60000000000000  site 115 species 5: Ni
   0.20000000000000   0.00000000000000   0.60000000000000  site 116 species 5: Ni
   0.20000000000000   0.20000000000000   0.60000000000000  site 117 species 5: Ni
   0.60000000000000   0.60000000000000   0.20000000000000  site 118 species 5: Ni
   0.40000000000000   0.80000000000000   0.60000000000000  site 119 species 5: Ni
   0.80000000000000   0.20000000000000   0.60000000000000  site 120 species 5: Ni
   0.80000000000000   0.20000000000000   0.40000000000000  site 121 species 5: Ni
   0.60000000000000   0.00000000000000   0.20000000000000  site 122 species 5: Ni
   0.60000000000000   0.00000000000000   0.60000000000000  site 123 species 5: Ni
   0.00000000000000   0.60000000000000   0.60000000000000  site 124 species 5: Ni
   0.20000000000000   0.40000000000000   0.40000000000000  site 125 species 5: Ni
