 O Sr Ti                                
   1.00000000000000     
     5.5816836249207240    0.0000000000000000    0.0000000000000000
     0.0000000000000000    3.9468463416193540    0.0000000000000000
     0.0000000000000000    0.0000000000000000   23.1633672436112725
   O    Sr   Ti
    12     4     4
Direct
  0.1990137851245848  0.4999999997948521  0.2134579204156282
  0.5340502208353897  0.0000000000000000  0.2519898134516083
  0.2960343567548591  0.4999999997948521  0.3276724182974817
  0.7944807762828532  0.4999999997948521  0.3103769058190551
  0.0136235175038308  0.0000000000000000  0.3785517346850966
  0.7365482300264929  0.4999999997948521  0.4329017084601219
  0.2365482304672852  0.4999999997948521  0.4466131403846134
  0.5136235170630385  0.0000000000000000  0.5009631137279271
  0.2944807767236455  0.4999999997948521  0.5691379430256873
  0.7960343563140668  0.4999999997948521  0.5518424305472607
  0.0340502212761820  0.0000000000000000  0.6275250353931341
  0.6990137846837925  0.4999999997948521  0.6660569284291142
  0.9910591447708796  0.0000000000000000  0.2574711289450349
  0.4940170291280452  0.0000000000000000  0.3818864920687659
  0.9940170295688375  0.0000000000000000  0.4976283563442578
  0.4910591443300873  0.0000000000000000  0.6220437198997075
  0.4581684119461897  0.4999999997948521  0.2585289722495716
  0.9830045281244892  0.4999999997948521  0.3773221584502906
  0.4830045276836969  0.4999999997948521  0.5021926899627331
  0.9581684123869820  0.4999999997948521  0.6209858765951708
 
  0.00000000E+00  0.00000000E+00  0.00000000E+00
  0.00000000E+00  0.00000000E+00  0.00000000E+00
  0.00000000E+00  0.00000000E+00  0.00000000E+00
  0.00000000E+00  0.00000000E+00  0.00000000E+00
  0.00000000E+00  0.00000000E+00  0.00000000E+00
  0.00000000E+00  0.00000000E+00  0.00000000E+00
  0.00000000E+00  0.00000000E+00  0.00000000E+00
  0.00000000E+00  0.00000000E+00  0.00000000E+00
  0.00000000E+00  0.00000000E+00  0.00000000E+00
  0.00000000E+00  0.00000000E+00  0.00000000E+00
  0.00000000E+00  0.00000000E+00  0.00000000E+00
  0.00000000E+00  0.00000000E+00  0.00000000E+00
  0.00000000E+00  0.00000000E+00  0.00000000E+00
  0.00000000E+00  0.00000000E+00  0.00000000E+00
  0.00000000E+00  0.00000000E+00  0.00000000E+00
  0.00000000E+00  0.00000000E+00  0.00000000E+00
  0.00000000E+00  0.00000000E+00  0.00000000E+00
  0.00000000E+00  0.00000000E+00  0.00000000E+00
  0.00000000E+00  0.00000000E+00  0.00000000E+00
  0.00000000E+00  0.00000000E+00  0.00000000E+00
