 O Sr Ti                                
   1.00000000000000     
     5.5816836249207240    0.0000000000000000    0.0000000000000000
     0.0000000000000000    3.9468463416193540    0.0000000000000000
     0.0000000000000000    0.0000000000000000   23.1633672436112725
   O    Sr   Ti
    12     4     4
Direct
  0.1990137851245875  0.4999999997948521  0.2134579204156274
  0.5340502208353874  0.0000000000000000  0.2519898134516059
  0.2960343567548582  0.4999999997948521  0.3276724182974823
  0.7944807762828531  0.4999999997948521  0.3103769058190525
  0.0136235175038318  0.0000000000000000  0.3785517346850951
  0.7365482300264927  0.4999999997948521  0.4329017084601240
  0.2365482304672846  0.4999999997948521  0.4466131403846111
  0.5136235170630397  0.0000000000000000  0.5009631137279296
  0.2944807767236445  0.4999999997948521  0.5691379430256889
  0.7960343563140663  0.4999999997948521  0.5518424305472597
  0.0340502212761797  0.0000000000000000  0.6275250353931358
  0.6990137846837944  0.4999999997948521  0.6660569284291153
 -0.0089408552291207  0.0000000000000000  0.2574711289450318
  0.4940170291280422  0.0000000000000000  0.3818864920687689
 -0.0059829704311659  0.0000000000000000  0.4976283563442544
  0.4910591443300869  0.0000000000000000  0.6220437198997101
  0.4581684119461875  0.4999999997948521  0.2585289722495726
 -0.0169954718755114  0.4999999997948521  0.3773221584502907
  0.4830045276836964  0.4999999997948521  0.5021926899627333
 -0.0418315876130203  0.4999999997948521  0.6209858765951699
 
  0.00000000E+00  0.00000000E+00  0.00000000E+00
  0.00000000E+00  0.00000000E+00  0.00000000E+00
  0.00000000E+00  0.00000000E+00  0.00000000E+00
  0.00000000E+00  0.00000000E+00  0.00000000E+00
  0.00000000E+00  0.00000000E+00  0.00000000E+00
  0.00000000E+00  0.00000000E+00  0.00000000E+00
  0.00000000E+00  0.00000000E+00  0.00000000E+00
  0.00000000E+00  0.00000000E+00  0.00000000E+00
  0.00000000E+00  0.00000000E+00  0.00000000E+00
  0.00000000E+00  0.00000000E+00  0.00000000E+00
  0.00000000E+00  0.00000000E+00  0.00000000E+00
  0.00000000E+00  0.00000000E+00  0.00000000E+00
  0.00000000E+00  0.00000000E+00  0.00000000E+00
  0.00000000E+00  0.00000000E+00  0.00000000E+00
  0.00000000E+00  0.00000000E+00  0.00000000E+00
  0.00000000E+00  0.00000000E+00  0.00000000E+00
  0.00000000E+00  0.00000000E+00  0.00000000E+00
  0.00000000E+00  0.00000000E+00  0.00000000E+00
  0.00000000E+00  0.00000000E+00  0.00000000E+00
  0.00000000E+00  0.00000000E+00  0.00000000E+00
