 O Sr Ti                                
   1.00000000000000     
     3.9468463416193540    0.0000000000000000    0.0000000000000000
     0.0000000000000000    3.9468463416193540    0.0000000000000000
     0.0000000000000000    0.0000000000000000   29.8139621956677381
   O    Sr   Ti
    12     4     4
Direct
  0.5000000000000000  0.5000000000000000  0.2683306548621900
  0.5000000000000000  0.0000000000000000  0.3345218963301306
  0.0000000000000000  0.5000000000000000  0.3345218963301306
  0.5000000000000000  0.5000000000000000  0.4007131377980784
  0.5000000000000000  0.0000000000000000  0.4669043792660261
  0.0000000000000000  0.5000000000000000  0.4669043792660261
  0.5000000000000000  0.5000000000000000  0.5330956207339739
  0.5000000000000000  0.0000000000000000  0.5992868622019216
  0.0000000000000000  0.5000000000000000  0.5992868622019216
  0.5000000000000000  0.5000000000000000  0.6654781036698694
  0.5000000000000000  0.0000000000000000  0.7316693451378100
  0.0000000000000000  0.5000000000000000  0.7316693451378100
  0.0000000000000000  0.0000000000000000  0.2683306548621900
  0.0000000000000000  0.0000000000000000  0.4007131377980784
  0.0000000000000000  0.0000000000000000  0.5330956207339739
  0.0000000000000000  0.0000000000000000  0.6654781036698694
  0.5000000000000000  0.5000000000000000  0.3345218963301306
  0.5000000000000000  0.5000000000000000  0.4669043792660261
  0.5000000000000000  0.5000000000000000  0.5992868622019216
  0.5000000000000000  0.5000000000000000  0.7316693451378100
 
  0.00000000E+00  0.00000000E+00  0.00000000E+00
  0.00000000E+00  0.00000000E+00  0.00000000E+00
  0.00000000E+00  0.00000000E+00  0.00000000E+00
  0.00000000E+00  0.00000000E+00  0.00000000E+00
  0.00000000E+00  0.00000000E+00  0.00000000E+00
  0.00000000E+00  0.00000000E+00  0.00000000E+00
  0.00000000E+00  0.00000000E+00  0.00000000E+00
  0.00000000E+00  0.00000000E+00  0.00000000E+00
  0.00000000E+00  0.00000000E+00  0.00000000E+00
  0.00000000E+00  0.00000000E+00  0.00000000E+00
  0.00000000E+00  0.00000000E+00  0.00000000E+00
  0.00000000E+00  0.00000000E+00  0.00000000E+00
  0.00000000E+00  0.00000000E+00  0.00000000E+00
  0.00000000E+00  0.00000000E+00  0.00000000E+00
  0.00000000E+00  0.00000000E+00  0.00000000E+00
  0.00000000E+00  0.00000000E+00  0.00000000E+00
  0.00000000E+00  0.00000000E+00  0.00000000E+00
  0.00000000E+00  0.00000000E+00  0.00000000E+00
  0.00000000E+00  0.00000000E+00  0.00000000E+00
  0.00000000E+00  0.00000000E+00  0.00000000E+00
