 O Sr Ti 
 1.0000000000000000
     3.9468463416193540    0.0000000000000000    0.0000000000000000
     0.0000000000000000    3.9468463416193540    0.0000000000000000
     0.0000000000000000    0.0000000000000000   29.8139621956677381
   O  Sr  Ti
  12   4   4
Direct
  0.5000000000000000  0.5000000000000000  0.2683306548621867
  0.5000000000000000  0.0000000000000000  0.3345218963301334
  0.0000000000000000  0.5000000000000000  0.3345218963301334
  0.5000000000000000  0.5000000000000000  0.4007131377980800
  0.5000000000000000  0.0000000000000000  0.4669043792660266
  0.0000000000000000  0.5000000000000000  0.4669043792660266
  0.5000000000000000  0.5000000000000000  0.5330956207339733
  0.5000000000000000  0.0000000000000000  0.5992868622019201
  0.0000000000000000  0.5000000000000000  0.5992868622019201
  0.5000000000000000  0.5000000000000000  0.6654781036698667
  0.5000000000000000  0.0000000000000000  0.7316693451378133
  0.0000000000000000  0.5000000000000000  0.7316693451378133
  0.0000000000000000  0.0000000000000000  0.2683306548621867
  0.0000000000000000  0.0000000000000000  0.4007131377980800
  0.0000000000000000  0.0000000000000000  0.5330956207339733
  0.0000000000000000  0.0000000000000000  0.6654781036698667
  0.5000000000000000  0.5000000000000000  0.3345218963301334
  0.5000000000000000  0.5000000000000000  0.4669043792660266
  0.5000000000000000  0.5000000000000000  0.5992868622019201
  0.5000000000000000  0.5000000000000000  0.7316693451378133
