 O Sr Ti                                
   1.00000000000000     
     5.5816836249207240    0.0000000000000000    0.0000000000000000
     2.7908418124603620    4.8338798150689595    0.0000000000000000
     0.0000000000000000    0.0000000000000000   19.9754947922440849
   O    Sr   Ti
    12     4     4
Direct
  0.5003769652920838  0.5003769652920838  0.2982769745148346
  0.5003769652920838  0.9992460694158325  0.2982769745148346
  0.9992460694158325  0.5003769652920838  0.2982769745148346
  0.1659459742284923  0.1659459742284923  0.4184871994655097
  0.1659459742284923  0.6681080515430082  0.4184871994655097
  0.6681080515430082  0.1659459742284923  0.4184871994655097
  0.8346172048305860  0.8346172048305860  0.5403524954148864
  0.8346172048305860  0.3307655903388351  0.5403524954148864
  0.3307655903388351  0.8346172048305860  0.5403524954148864
  0.5031717764619899  0.5031717764619899  0.6604019144453233
  0.5031717764619899  0.9936564470760203  0.6604019144453233
  0.9936564470760203  0.5031717764619899  0.6604019144453233
  0.0000000000000000  0.0000000000000000  0.2901607066470007
  0.6666666666666643  0.6666666666666643  0.3896247884601252
  0.3333333333333357  0.3333333333333357  0.5122232933645208
  0.0000000000000000  0.0000000000000000  0.6335232385738720
  0.3333333333333357  0.3333333333333357  0.3391992699208402
  0.0000000000000000  0.0000000000000000  0.4627432493828323
  0.6666666666666643  0.6666666666666643  0.5832983731934078
  0.3333333333333357  0.3333333333333357  0.6944450930176274
 
  0.00000000E+00  0.00000000E+00  0.00000000E+00
  0.00000000E+00  0.00000000E+00  0.00000000E+00
  0.00000000E+00  0.00000000E+00  0.00000000E+00
  0.00000000E+00  0.00000000E+00  0.00000000E+00
  0.00000000E+00  0.00000000E+00  0.00000000E+00
  0.00000000E+00  0.00000000E+00  0.00000000E+00
  0.00000000E+00  0.00000000E+00  0.00000000E+00
  0.00000000E+00  0.00000000E+00  0.00000000E+00
  0.00000000E+00  0.00000000E+00  0.00000000E+00
  0.00000000E+00  0.00000000E+00  0.00000000E+00
  0.00000000E+00  0.00000000E+00  0.00000000E+00
  0.00000000E+00  0.00000000E+00  0.00000000E+00
  0.00000000E+00  0.00000000E+00  0.00000000E+00
  0.00000000E+00  0.00000000E+00  0.00000000E+00
  0.00000000E+00  0.00000000E+00  0.00000000E+00
  0.00000000E+00  0.00000000E+00  0.00000000E+00
  0.00000000E+00  0.00000000E+00  0.00000000E+00
  0.00000000E+00  0.00000000E+00  0.00000000E+00
  0.00000000E+00  0.00000000E+00  0.00000000E+00
  0.00000000E+00  0.00000000E+00  0.00000000E+00
