Si_bulk_icsd_60385                      
   1.00000000000000     
     5.4310099999999997    0.0000000000000000    0.0000000000000000
     0.0000000000000000   21.5910100000000007    0.0000000000000000
     0.0000000000000000    0.0000000000000000   21.5910100000000007
   Si   H 
    13    12
Direct
  0.8632109575552249  0.0172070273579621  0.0172070273579621
  0.4999990793609257  0.1257699385068136  0.0106980422481300
  0.2185546967563710  0.0620050299028065  0.0620050299028065
  0.7814453032436290  0.1895353102665567  0.0620050299028065
  0.0000000000000000  0.1257699385068136  0.1257699385068136
  0.4999990793609257  0.0106980422481300  0.1257699385068136
  0.2185546967563710  0.1895353102665567  0.1895353102665567
  0.7814453032436290  0.0620050299028065  0.1895353102665567
  0.1367890424447751  0.0172070273579621  0.2343333128113940
  0.4999990793609257  0.1257699385068136  0.2408422979212261
  0.1367890424447751  0.2343333128113940  0.0172070273579621
  0.4999990793609257  0.2408422979212261  0.1257699385068136
  0.8632109575552249  0.2343333128113940  0.2343333128113940
  0.1108965630116785  0.0244877463591209  0.3038654164163574
  0.4999990793609257  0.1257699385068136  0.3105996844125301
  0.8891034369883215  0.2270525938102352  0.3038654164163574
  0.8891034369883215  0.0244877463591209  0.9476744605972698
  0.4999990793609257  0.1257699385068136  0.9409401926011043
  0.1108965630116785  0.2270525938102352  0.9476744605972698
  0.1108965630116785  0.3038654164163574  0.0244877463591209
  0.4999990793609257  0.3105996844125301  0.1257699385068136
  0.8891034369883215  0.3038654164163574  0.2270525938102352
  0.8891034369883215  0.9476744605972698  0.0244877463591209
  0.4999990793609257  0.9409401926011043  0.1257699385068136
  0.1108965630116785  0.9476744605972698  0.2270525938102352
 
  0.00000000E+00  0.00000000E+00  0.00000000E+00
  0.00000000E+00  0.00000000E+00  0.00000000E+00
  0.00000000E+00  0.00000000E+00  0.00000000E+00
  0.00000000E+00  0.00000000E+00  0.00000000E+00
  0.00000000E+00  0.00000000E+00  0.00000000E+00
  0.00000000E+00  0.00000000E+00  0.00000000E+00
  0.00000000E+00  0.00000000E+00  0.00000000E+00
  0.00000000E+00  0.00000000E+00  0.00000000E+00
  0.00000000E+00  0.00000000E+00  0.00000000E+00
  0.00000000E+00  0.00000000E+00  0.00000000E+00
  0.00000000E+00  0.00000000E+00  0.00000000E+00
  0.00000000E+00  0.00000000E+00  0.00000000E+00
  0.00000000E+00  0.00000000E+00  0.00000000E+00
  0.00000000E+00  0.00000000E+00  0.00000000E+00
  0.00000000E+00  0.00000000E+00  0.00000000E+00
  0.00000000E+00  0.00000000E+00  0.00000000E+00
  0.00000000E+00  0.00000000E+00  0.00000000E+00
  0.00000000E+00  0.00000000E+00  0.00000000E+00
  0.00000000E+00  0.00000000E+00  0.00000000E+00
  0.00000000E+00  0.00000000E+00  0.00000000E+00
  0.00000000E+00  0.00000000E+00  0.00000000E+00
  0.00000000E+00  0.00000000E+00  0.00000000E+00
  0.00000000E+00  0.00000000E+00  0.00000000E+00
  0.00000000E+00  0.00000000E+00  0.00000000E+00
  0.00000000E+00  0.00000000E+00  0.00000000E+00
