Si_bulk_icsd_60385                      
   1.00000000000000     
     5.4310099999999997    0.0000000000000000    0.0000000000000000
     0.0000000000000000   21.5910100000000007    0.0000000000000000
     0.0000000000000000    0.0000000000000000   21.5910100000000007
   Si   H 
    13    12
Direct
 -0.1367890424447746  0.0172070273579590  0.0172070273579590
  0.4999990793609257  0.1257699385068136  0.0106980422481323
  0.2185546967563738  0.0620050299028089  0.0620050299028089
  0.7814453032436269  0.1895353102665545  0.0620050299028089
 -0.0000000000000000  0.1257699385068136  0.1257699385068136
  0.4999990793609257  0.0106980422481323  0.1257699385068136
  0.2185546967563738  0.1895353102665545  0.1895353102665545
  0.7814453032436269  0.0620050299028089  0.1895353102665545
  0.1367890424447746  0.0172070273579590  0.2343333128113966
  0.4999990793609257  0.1257699385068136  0.2408422979212237
  0.1367890424447746  0.2343333128113966  0.0172070273579590
  0.4999990793609257  0.2408422979212237  0.1257699385068136
 -0.1367890424447746  0.2343333128113966  0.2343333128113966
  0.1108965630116819  0.0244877463591223  0.3038654164163582
  0.4999990793609257  0.1257699385068136  0.3105996844125267
 -0.1108965630116819  0.2270525938102340  0.3038654164163582
 -0.1108965630116819  0.0244877463591223  0.9476744605972706
  0.4999990793609257  0.1257699385068136  0.9409401926011021
  0.1108965630116819  0.2270525938102340  0.9476744605972703
  0.1108965630116819  0.3038654164163582  0.0244877463591223
  0.4999990793609257  0.3105996844125267  0.1257699385068136
 -0.1108965630116819  0.3038654164163582  0.2270525938102340
 -0.1108965630116819  0.9476744605972703  0.0244877463591223
  0.4999990793609257  0.9409401926011021  0.1257699385068136
  0.1108965630116819  0.9476744605972703  0.2270525938102340
 
  0.00000000E+00  0.00000000E+00  0.00000000E+00
  0.00000000E+00  0.00000000E+00  0.00000000E+00
  0.00000000E+00  0.00000000E+00  0.00000000E+00
  0.00000000E+00  0.00000000E+00  0.00000000E+00
  0.00000000E+00  0.00000000E+00  0.00000000E+00
  0.00000000E+00  0.00000000E+00  0.00000000E+00
  0.00000000E+00  0.00000000E+00  0.00000000E+00
  0.00000000E+00  0.00000000E+00  0.00000000E+00
  0.00000000E+00  0.00000000E+00  0.00000000E+00
  0.00000000E+00  0.00000000E+00  0.00000000E+00
  0.00000000E+00  0.00000000E+00  0.00000000E+00
  0.00000000E+00  0.00000000E+00  0.00000000E+00
  0.00000000E+00  0.00000000E+00  0.00000000E+00
  0.00000000E+00  0.00000000E+00  0.00000000E+00
  0.00000000E+00  0.00000000E+00  0.00000000E+00
  0.00000000E+00  0.00000000E+00  0.00000000E+00
  0.00000000E+00  0.00000000E+00  0.00000000E+00
  0.00000000E+00  0.00000000E+00  0.00000000E+00
  0.00000000E+00  0.00000000E+00  0.00000000E+00
  0.00000000E+00  0.00000000E+00  0.00000000E+00
  0.00000000E+00  0.00000000E+00  0.00000000E+00
  0.00000000E+00  0.00000000E+00  0.00000000E+00
  0.00000000E+00  0.00000000E+00  0.00000000E+00
  0.00000000E+00  0.00000000E+00  0.00000000E+00
  0.00000000E+00  0.00000000E+00  0.00000000E+00
