k-points along fcc high symmetry lines
 20     0  ! # of points per line
Line-mode
reciprocal
  0.500  0.250  0.750  W
  0.500  0.500  0.500  L

  0.500  0.500  0.500  L
  0.000  0.000  0.000  \Gamma

  0.000  0.000  0.000  \Gamma
  0.500  0.000  0.500  X

  0.500  0.000  0.500  X
  0.500  0.250  0.750  W

  0.500  0.250  0.750  W
  0.375  0.375  0.750  K
