 O Sr Ti                                
   1.00000000000000     
     3.9468463416193540    0.0000000000000000    0.0000000000000000
     0.0000000000000000    3.9468463416193540    0.0000000000000000
     0.0000000000000000    0.0000000000000000   31.8139621956677381
   O    Sr   Ti
    12     4     4
Direct
  0.5000000000000000  0.5000000000000000  0.2828946594154687
  0.5000000000000000  0.0000000000000000  0.3449247567253337
  0.0000000000000000  0.5000000000000000  0.3449247567253337
  0.5000000000000000  0.5000000000000000  0.4069548540351988
  0.5000000000000000  0.0000000000000000  0.4689849513450639
  0.0000000000000000  0.5000000000000000  0.4689849513450639
  0.5000000000000000  0.5000000000000000  0.5310150486549361
  0.5000000000000000  0.0000000000000000  0.5930451459648012
  0.0000000000000000  0.5000000000000000  0.5930451459648012
  0.5000000000000000  0.5000000000000000  0.6550752432746663
  0.5000000000000000  0.0000000000000000  0.7171053405845313
  0.0000000000000000  0.5000000000000000  0.7171053405845313
  0.0000000000000000  0.0000000000000000  0.2828946594154687
  0.0000000000000000  0.0000000000000000  0.4069548540351988
  0.0000000000000000  0.0000000000000000  0.5310150486549361
  0.0000000000000000  0.0000000000000000  0.6550752432746663
  0.5000000000000000  0.5000000000000000  0.3449247567253337
  0.5000000000000000  0.5000000000000000  0.4689849513450639
  0.5000000000000000  0.5000000000000000  0.5930451459648012
  0.5000000000000000  0.5000000000000000  0.7171053405845313
 
  0.00000000E+00  0.00000000E+00  0.00000000E+00
  0.00000000E+00  0.00000000E+00  0.00000000E+00
  0.00000000E+00  0.00000000E+00  0.00000000E+00
  0.00000000E+00  0.00000000E+00  0.00000000E+00
  0.00000000E+00  0.00000000E+00  0.00000000E+00
  0.00000000E+00  0.00000000E+00  0.00000000E+00
  0.00000000E+00  0.00000000E+00  0.00000000E+00
  0.00000000E+00  0.00000000E+00  0.00000000E+00
  0.00000000E+00  0.00000000E+00  0.00000000E+00
  0.00000000E+00  0.00000000E+00  0.00000000E+00
  0.00000000E+00  0.00000000E+00  0.00000000E+00
  0.00000000E+00  0.00000000E+00  0.00000000E+00
  0.00000000E+00  0.00000000E+00  0.00000000E+00
  0.00000000E+00  0.00000000E+00  0.00000000E+00
  0.00000000E+00  0.00000000E+00  0.00000000E+00
  0.00000000E+00  0.00000000E+00  0.00000000E+00
  0.00000000E+00  0.00000000E+00  0.00000000E+00
  0.00000000E+00  0.00000000E+00  0.00000000E+00
  0.00000000E+00  0.00000000E+00  0.00000000E+00
  0.00000000E+00  0.00000000E+00  0.00000000E+00
