 O Sr Ti 
 1.0000000000000000
     3.9468463416193540    0.0000000000000000    0.0000000000000000
     0.0000000000000000    3.9468463416193540    0.0000000000000000
     0.0000000000000000    0.0000000000000000   31.8139621956677381
   O  Sr  Ti
  12   4   4
Direct
  0.5000000000000000  0.5000000000000000  0.2828946594154680
  0.5000000000000000  0.0000000000000000  0.3449247567253343
  0.0000000000000000  0.5000000000000000  0.3449247567253343
  0.5000000000000000  0.5000000000000000  0.4069548540352006
  0.5000000000000000  0.0000000000000000  0.4689849513450668
  0.0000000000000000  0.5000000000000000  0.4689849513450668
  0.5000000000000000  0.5000000000000000  0.5310150486549332
  0.5000000000000000  0.0000000000000000  0.5930451459647995
  0.0000000000000000  0.5000000000000000  0.5930451459647995
  0.5000000000000000  0.5000000000000000  0.6550752432746657
  0.5000000000000000  0.0000000000000000  0.7171053405845320
  0.0000000000000000  0.5000000000000000  0.7171053405845320
  0.0000000000000000  0.0000000000000000  0.2828946594154680
  0.0000000000000000  0.0000000000000000  0.4069548540352006
  0.0000000000000000  0.0000000000000000  0.5310150486549332
  0.0000000000000000  0.0000000000000000  0.6550752432746657
  0.5000000000000000  0.5000000000000000  0.3449247567253343
  0.5000000000000000  0.5000000000000000  0.4689849513450668
  0.5000000000000000  0.5000000000000000  0.5930451459647995
  0.5000000000000000  0.5000000000000000  0.7171053405845320
