Si_bulk_icsd_60385                      
   1.00000000000000     
     5.4310099999999997    0.0000000000000000    0.0000000000000000
     0.0000000000000000    5.4310099999999997    0.0000000000000000
     0.0000000000000000    0.0000000000000000   16.7910100000000000
   Si
    10
Direct
  0.0000000000000000  0.0000000000000000  0.0000000000000000
  0.4999990793609257  0.4999990793609257  0.0000000000000000
  0.2499995396804664  0.2499995396804664  0.0808617230291659
  0.7500004603195336  0.7500004603195336  0.0808617230291659
  0.0000000000000000  0.4999990793609257  0.1617234460583390
  0.4999990793609257  0.0000000000000000  0.1617234460583390
  0.2499995396804664  0.7500004603195336  0.2425857646442964
  0.7500004603195336  0.2499995396804664  0.2425857646442964
  0.0000000000000000  0.0000000000000000  0.3234474876734623
  0.4999990793609257  0.4999990793609257  0.3234474876734623
 
  0.00000000E+00  0.00000000E+00  0.00000000E+00
  0.00000000E+00  0.00000000E+00  0.00000000E+00
  0.00000000E+00  0.00000000E+00  0.00000000E+00
  0.00000000E+00  0.00000000E+00  0.00000000E+00
  0.00000000E+00  0.00000000E+00  0.00000000E+00
  0.00000000E+00  0.00000000E+00  0.00000000E+00
  0.00000000E+00  0.00000000E+00  0.00000000E+00
  0.00000000E+00  0.00000000E+00  0.00000000E+00
  0.00000000E+00  0.00000000E+00  0.00000000E+00
  0.00000000E+00  0.00000000E+00  0.00000000E+00
