 O Sr Ti                                
   1.00000000000000     
     3.9468463416193540    0.0000000000000000    0.0000000000000000
     0.0000000000000000    3.9468463416193540    0.0000000000000000
     0.0000000000000000    0.0000000000000000   33.7076548789064532
   O    Sr   Ti
    18     6     6
Direct
  0.5000000000000000  0.5000000000000000  0.1780011104763801
  0.5000000000000000  0.0000000000000000  0.2365463631170428
  0.0000000000000000  0.5000000000000000  0.2365463631170428
  0.5000000000000000  0.5000000000000000  0.2950916157576984
  0.5000000000000000  0.0000000000000000  0.3536368683983540
  0.0000000000000000  0.5000000000000000  0.3536368683983540
  0.5000000000000000  0.5000000000000000  0.4121821210390166
  0.5000000000000000  0.0000000000000000  0.4707273736796722
  0.0000000000000000  0.5000000000000000  0.4707273736796722
  0.5000000000000000  0.5000000000000000  0.5292726263203278
  0.5000000000000000  0.0000000000000000  0.5878178789609834
  0.0000000000000000  0.5000000000000000  0.5878178789609834
  0.5000000000000000  0.5000000000000000  0.6463631316016460
  0.5000000000000000  0.0000000000000000  0.7049083842423016
  0.0000000000000000  0.5000000000000000  0.7049083842423016
  0.5000000000000000  0.5000000000000000  0.7634536368829572
  0.5000000000000000  0.0000000000000000  0.8219988895236199
  0.0000000000000000  0.5000000000000000  0.8219988895236199
  0.0000000000000000  0.0000000000000000  0.1780011104763801
  0.0000000000000000  0.0000000000000000  0.2950916157576984
  0.0000000000000000  0.0000000000000000  0.4121821210390166
  0.0000000000000000  0.0000000000000000  0.5292726263203278
  0.0000000000000000  0.0000000000000000  0.6463631316016460
  0.0000000000000000  0.0000000000000000  0.7634536368829572
  0.5000000000000000  0.5000000000000000  0.2365463631170428
  0.5000000000000000  0.5000000000000000  0.3536368683983540
  0.5000000000000000  0.5000000000000000  0.4707273736796722
  0.5000000000000000  0.5000000000000000  0.5878178789609834
  0.5000000000000000  0.5000000000000000  0.7049083842423016
  0.5000000000000000  0.5000000000000000  0.8219988895236199
 
  0.00000000E+00  0.00000000E+00  0.00000000E+00
  0.00000000E+00  0.00000000E+00  0.00000000E+00
  0.00000000E+00  0.00000000E+00  0.00000000E+00
  0.00000000E+00  0.00000000E+00  0.00000000E+00
  0.00000000E+00  0.00000000E+00  0.00000000E+00
  0.00000000E+00  0.00000000E+00  0.00000000E+00
  0.00000000E+00  0.00000000E+00  0.00000000E+00
  0.00000000E+00  0.00000000E+00  0.00000000E+00
  0.00000000E+00  0.00000000E+00  0.00000000E+00
  0.00000000E+00  0.00000000E+00  0.00000000E+00
  0.00000000E+00  0.00000000E+00  0.00000000E+00
  0.00000000E+00  0.00000000E+00  0.00000000E+00
  0.00000000E+00  0.00000000E+00  0.00000000E+00
  0.00000000E+00  0.00000000E+00  0.00000000E+00
  0.00000000E+00  0.00000000E+00  0.00000000E+00
  0.00000000E+00  0.00000000E+00  0.00000000E+00
  0.00000000E+00  0.00000000E+00  0.00000000E+00
  0.00000000E+00  0.00000000E+00  0.00000000E+00
  0.00000000E+00  0.00000000E+00  0.00000000E+00
  0.00000000E+00  0.00000000E+00  0.00000000E+00
  0.00000000E+00  0.00000000E+00  0.00000000E+00
  0.00000000E+00  0.00000000E+00  0.00000000E+00
  0.00000000E+00  0.00000000E+00  0.00000000E+00
  0.00000000E+00  0.00000000E+00  0.00000000E+00
  0.00000000E+00  0.00000000E+00  0.00000000E+00
  0.00000000E+00  0.00000000E+00  0.00000000E+00
  0.00000000E+00  0.00000000E+00  0.00000000E+00
  0.00000000E+00  0.00000000E+00  0.00000000E+00
  0.00000000E+00  0.00000000E+00  0.00000000E+00
  0.00000000E+00  0.00000000E+00  0.00000000E+00
