 O Sr Ti 
 1.0000000000000000
     3.9468463416193540    0.0000000000000000    0.0000000000000000
     0.0000000000000000    3.9468463416193540    0.0000000000000000
     0.0000000000000000    0.0000000000000000   33.7076548789064532
   O  Sr  Ti
  18   6   6
Direct
  0.5000000000000000  0.5000000000000000  0.1780011104763825
  0.5000000000000000  0.0000000000000000  0.2365463631170402
  0.0000000000000000  0.5000000000000000  0.2365463631170402
  0.5000000000000000  0.5000000000000000  0.2950916157576979
  0.5000000000000000  0.0000000000000000  0.3536368683983557
  0.0000000000000000  0.5000000000000000  0.3536368683983557
  0.5000000000000000  0.5000000000000000  0.4121821210390134
  0.5000000000000000  0.0000000000000000  0.4707273736796711
  0.0000000000000000  0.5000000000000000  0.4707273736796711
  0.5000000000000000  0.5000000000000000  0.5292726263203288
  0.5000000000000000  0.0000000000000000  0.5878178789609866
  0.0000000000000000  0.5000000000000000  0.5878178789609866
  0.5000000000000000  0.5000000000000000  0.6463631316016442
  0.5000000000000000  0.0000000000000000  0.7049083842423021
  0.0000000000000000  0.5000000000000000  0.7049083842423021
  0.5000000000000000  0.5000000000000000  0.7634536368829596
  0.5000000000000000  0.0000000000000000  0.8219988895236175
  0.0000000000000000  0.5000000000000000  0.8219988895236175
  0.0000000000000000  0.0000000000000000  0.1780011104763825
  0.0000000000000000  0.0000000000000000  0.2950916157576979
  0.0000000000000000  0.0000000000000000  0.4121821210390134
  0.0000000000000000  0.0000000000000000  0.5292726263203288
  0.0000000000000000  0.0000000000000000  0.6463631316016442
  0.0000000000000000  0.0000000000000000  0.7634536368829596
  0.5000000000000000  0.5000000000000000  0.2365463631170402
  0.5000000000000000  0.5000000000000000  0.3536368683983557
  0.5000000000000000  0.5000000000000000  0.4707273736796711
  0.5000000000000000  0.5000000000000000  0.5878178789609866
  0.5000000000000000  0.5000000000000000  0.7049083842423021
  0.5000000000000000  0.5000000000000000  0.8219988895236175
