Si_bulk_icsd_60385                      
   1.00000000000000     
     5.4310099999999997    0.0000000000000000    0.0000000000000000
     0.0000000000000000    5.4310099999999997    0.0000000000000000
     0.0000000000000000    0.0000000000000000   22.7910100000000000
   Si
    10
Direct
  0.0000000000000000  0.0000000000000000  0.0000000000000000
  0.4999990793609257  0.4999990793609257  0.0000000000000000
  0.2499995396804664  0.2499995396804664  0.0595739284919787
  0.7500004603195336  0.7500004603195336  0.0595739284919787
  0.0000000000000000  0.4999990793609257  0.1191478569839575
  0.4999990793609257  0.0000000000000000  0.1191478569839575
  0.2499995396804664  0.7500004603195336  0.1787222242454405
  0.7500004603195336  0.2499995396804664  0.1787222242454405
  0.0000000000000000  0.0000000000000000  0.2382961527374192
  0.4999990793609257  0.4999990793609257  0.2382961527374192
 
  0.00000000E+00  0.00000000E+00  0.00000000E+00
  0.00000000E+00  0.00000000E+00  0.00000000E+00
  0.00000000E+00  0.00000000E+00  0.00000000E+00
  0.00000000E+00  0.00000000E+00  0.00000000E+00
  0.00000000E+00  0.00000000E+00  0.00000000E+00
  0.00000000E+00  0.00000000E+00  0.00000000E+00
  0.00000000E+00  0.00000000E+00  0.00000000E+00
  0.00000000E+00  0.00000000E+00  0.00000000E+00
  0.00000000E+00  0.00000000E+00  0.00000000E+00
  0.00000000E+00  0.00000000E+00  0.00000000E+00
