Si_bulk_icsd_60385                      
   1.00000000000000     
    20.2310100000000013    0.0000000000000000    0.0000000000000000
     0.0000000000000000   20.2310100000000013    0.0000000000000000
     0.0000000000000000    0.0000000000000000   20.2310100000000013
   Si   H 
    14    18
Direct
  0.9970444120204149  0.9970441371550933  0.9970435979959973
  0.1342051546515322  0.1342054588612740  0.0067186985413983
  0.0647196621407744  0.0647197974778706  0.0647202986324587
  0.2036940729402019  0.2036942338896282  0.0647195367800606
  0.0067190748115991  0.1342052834254162  0.1342057807805830
  0.1342054652748814  0.0067193326144093  0.1342059545501542
  0.0647200126871823  0.2036941544294493  0.2036943142838012
  0.2036940614731151  0.0647201554194154  0.2036939666772852
  0.1341649051896638  0.1341648196785883  0.2617057626764776
  0.1341655593981415  0.2617061993416954  0.1341651510616941
  0.9970150728648193  0.2713826621966717  0.2713830060713462
  0.2617057245951813  0.1341653804118792  0.1341655109842961
  0.2713835874800949  0.9970149771954695  0.2713830502873762
  0.2713827934057278  0.2713816399703077  0.9970143538970859
  0.0105886302182370  0.0105885830813008  0.9253783164094926
  0.1342486210844100  0.1342487183189291  0.9320943783022955
  0.2578925830157459  0.2578924214154696  0.9254049297344764
  0.0106039440887571  0.2578797660310670  0.3430740996822834
  0.1342966881286429  0.1342966471918956  0.3363285669805762
  0.2578794803204474  0.0106039929687043  0.3430750474727517
  0.9253780278259640  0.0105884931643629  0.0105880858597800
  0.9320938735373829  0.1342486738089192  0.1342485936871469
  0.9254049049935205  0.2578927220880374  0.2578923126584414
  0.3363280211398987  0.1342968197417491  0.1342965779752774
  0.3430741469909719  0.0106039884347240  0.2578797496115754
  0.3430746506406877  0.2578792768492022  0.0106039833017419
  0.0105884410712989  0.9253782360497738  0.0105880598020036
  0.1342486062163744  0.9320936908999968  0.1342485393271460
  0.2578925440491133  0.9254049549614081  0.2578928942762460
  0.1342966308422220  0.3363278370597413  0.1342966293353456
  0.0106040630149309  0.3430749131522433  0.2578791715540092
  0.2578794585888531  0.3430749074160886  0.0106039555101844
 
  0.00000000E+00  0.00000000E+00  0.00000000E+00
  0.00000000E+00  0.00000000E+00  0.00000000E+00
  0.00000000E+00  0.00000000E+00  0.00000000E+00
  0.00000000E+00  0.00000000E+00  0.00000000E+00
  0.00000000E+00  0.00000000E+00  0.00000000E+00
  0.00000000E+00  0.00000000E+00  0.00000000E+00
  0.00000000E+00  0.00000000E+00  0.00000000E+00
  0.00000000E+00  0.00000000E+00  0.00000000E+00
  0.00000000E+00  0.00000000E+00  0.00000000E+00
  0.00000000E+00  0.00000000E+00  0.00000000E+00
  0.00000000E+00  0.00000000E+00  0.00000000E+00
  0.00000000E+00  0.00000000E+00  0.00000000E+00
  0.00000000E+00  0.00000000E+00  0.00000000E+00
  0.00000000E+00  0.00000000E+00  0.00000000E+00
  0.00000000E+00  0.00000000E+00  0.00000000E+00
  0.00000000E+00  0.00000000E+00  0.00000000E+00
  0.00000000E+00  0.00000000E+00  0.00000000E+00
  0.00000000E+00  0.00000000E+00  0.00000000E+00
  0.00000000E+00  0.00000000E+00  0.00000000E+00
  0.00000000E+00  0.00000000E+00  0.00000000E+00
  0.00000000E+00  0.00000000E+00  0.00000000E+00
  0.00000000E+00  0.00000000E+00  0.00000000E+00
  0.00000000E+00  0.00000000E+00  0.00000000E+00
  0.00000000E+00  0.00000000E+00  0.00000000E+00
  0.00000000E+00  0.00000000E+00  0.00000000E+00
  0.00000000E+00  0.00000000E+00  0.00000000E+00
  0.00000000E+00  0.00000000E+00  0.00000000E+00
  0.00000000E+00  0.00000000E+00  0.00000000E+00
  0.00000000E+00  0.00000000E+00  0.00000000E+00
  0.00000000E+00  0.00000000E+00  0.00000000E+00
  0.00000000E+00  0.00000000E+00  0.00000000E+00
  0.00000000E+00  0.00000000E+00  0.00000000E+00
