Si_bulk_icsd_60385                      
   1.00000000000000     
    20.2310100000000013    0.0000000000000000    0.0000000000000000
     0.0000000000000000   20.2310100000000013    0.0000000000000000
     0.0000000000000000    0.0000000000000000   20.2310100000000013
   Si   H 
    14    18
Direct
 -0.0029555879795859 -0.0029558628449083 -0.0029564020040042
  0.1342051546515309  0.1342054588612735  0.0067186985413963
  0.0647196621407763  0.0647197974778721  0.0647202986324572
  0.2036940729402018  0.2036942338896262  0.0647195367800600
  0.0067190748115965  0.1342052834254154  0.1342057807805833
  0.1342054652748816  0.0067193326144095  0.1342059545501571
  0.0647200126871821  0.2036941544294474  0.2036943142837989
  0.2036940614731120  0.0647201554194160  0.2036939666772840
  0.1341649051896621  0.1341648196785897  0.2617057626764760
  0.1341655593981420  0.2617061993416965  0.1341651510616941
 -0.0029849271351832  0.2713826621966718  0.2713830060713444
  0.2617057245951833  0.1341653804118776  0.1341655109842942
  0.2713835874800984 -0.0029850228045312  0.2713830502873761
  0.2713827934057259  0.2713816399703053 -0.0029856461029153
  0.0105886302182403  0.0105885830813020  0.9253783164094944
  0.1342486210844093  0.1342487183189326  0.9320943783022978
  0.2578925830157459  0.2578924214154676  0.9254049297344735
  0.0106039440887536  0.2578797660310682  0.3430740996822834
  0.1342966881286421  0.1342966471918982  0.3363285669805789
  0.2578794803204467  0.0106039929687055  0.3430750474727541
  0.9253780278259608  0.0105884931643634  0.0105880858597800
  0.9320938735373829  0.1342486738089175  0.1342485936871449
  0.9254049049935198  0.2578927220880339  0.2578923126584409
  0.3363280211399014  0.1342968197417496  0.1342965779752742
  0.3430741469909693  0.0106039884347236  0.2578797496115782
  0.3430746506406864  0.2578792768492010  0.0106039833017405
  0.0105884410712971  0.9253782360497718  0.0105880598020021
  0.1342486062163730  0.9320936908999952  0.1342485393271459
  0.2578925440491103  0.9254049549614068  0.2578928942762455
  0.1342966308422238  0.3363278370597413  0.1342966293353463
  0.0106040630149344  0.3430749131522420  0.2578791715540107
  0.2578794585888518  0.3430749074160908  0.0106039555101814
 
  0.00000000E+00  0.00000000E+00  0.00000000E+00
  0.00000000E+00  0.00000000E+00  0.00000000E+00
  0.00000000E+00  0.00000000E+00  0.00000000E+00
  0.00000000E+00  0.00000000E+00  0.00000000E+00
  0.00000000E+00  0.00000000E+00  0.00000000E+00
  0.00000000E+00  0.00000000E+00  0.00000000E+00
  0.00000000E+00  0.00000000E+00  0.00000000E+00
  0.00000000E+00  0.00000000E+00  0.00000000E+00
  0.00000000E+00  0.00000000E+00  0.00000000E+00
  0.00000000E+00  0.00000000E+00  0.00000000E+00
  0.00000000E+00  0.00000000E+00  0.00000000E+00
  0.00000000E+00  0.00000000E+00  0.00000000E+00
  0.00000000E+00  0.00000000E+00  0.00000000E+00
  0.00000000E+00  0.00000000E+00  0.00000000E+00
  0.00000000E+00  0.00000000E+00  0.00000000E+00
  0.00000000E+00  0.00000000E+00  0.00000000E+00
  0.00000000E+00  0.00000000E+00  0.00000000E+00
  0.00000000E+00  0.00000000E+00  0.00000000E+00
  0.00000000E+00  0.00000000E+00  0.00000000E+00
  0.00000000E+00  0.00000000E+00  0.00000000E+00
  0.00000000E+00  0.00000000E+00  0.00000000E+00
  0.00000000E+00  0.00000000E+00  0.00000000E+00
  0.00000000E+00  0.00000000E+00  0.00000000E+00
  0.00000000E+00  0.00000000E+00  0.00000000E+00
  0.00000000E+00  0.00000000E+00  0.00000000E+00
  0.00000000E+00  0.00000000E+00  0.00000000E+00
  0.00000000E+00  0.00000000E+00  0.00000000E+00
  0.00000000E+00  0.00000000E+00  0.00000000E+00
  0.00000000E+00  0.00000000E+00  0.00000000E+00
  0.00000000E+00  0.00000000E+00  0.00000000E+00
  0.00000000E+00  0.00000000E+00  0.00000000E+00
  0.00000000E+00  0.00000000E+00  0.00000000E+00
