 O Sr Ti                                
   1.00000000000000     
     5.5228829703016524    0.0000000000000000    0.0000000000000000
     0.0000000000000000    3.9052680000000000    0.0000000000000000
     0.0000000000000000    0.0000000000000000   21.6650451980278902
   O    Sr   Ti
    12     4     4
Direct
  0.5000000000000000  0.0000000000000000  0.2769438025703366
  0.2500000000000000  0.5000000000000000  0.3406741446930965
  0.7500000000000000  0.5000000000000000  0.3406741446930965
  0.0000000000000000  0.0000000000000000  0.4044044868158565
  0.7500000000000000  0.5000000000000000  0.4681348289386165
  0.2500000000000000  0.5000000000000000  0.4681348289386165
  0.5000000000000000  0.0000000000000000  0.5318651710613835
  0.2500000000000000  0.5000000000000000  0.5955955131841435
  0.7500000000000000  0.5000000000000000  0.5955955131841435
  0.0000000000000000  0.0000000000000000  0.6593258553069035
  0.7500000000000000  0.5000000000000000  0.7230561974296634
  0.2500000000000000  0.5000000000000000  0.7230561974296634
  0.0000000000000000  0.0000000000000000  0.2769438025703366
  0.5000000000000000  0.0000000000000000  0.4044044868158565
  0.0000000000000000  0.0000000000000000  0.5318651710613835
  0.5000000000000000  0.0000000000000000  0.6593258553069035
  0.5000000000000000  0.5000000000000000  0.2769438025703366
  0.0000000000000000  0.5000000000000000  0.4044044868158565
  0.5000000000000000  0.5000000000000000  0.5318651710613835
  0.0000000000000000  0.5000000000000000  0.6593258553069035
 
  0.00000000E+00  0.00000000E+00  0.00000000E+00
  0.00000000E+00  0.00000000E+00  0.00000000E+00
  0.00000000E+00  0.00000000E+00  0.00000000E+00
  0.00000000E+00  0.00000000E+00  0.00000000E+00
  0.00000000E+00  0.00000000E+00  0.00000000E+00
  0.00000000E+00  0.00000000E+00  0.00000000E+00
  0.00000000E+00  0.00000000E+00  0.00000000E+00
  0.00000000E+00  0.00000000E+00  0.00000000E+00
  0.00000000E+00  0.00000000E+00  0.00000000E+00
  0.00000000E+00  0.00000000E+00  0.00000000E+00
  0.00000000E+00  0.00000000E+00  0.00000000E+00
  0.00000000E+00  0.00000000E+00  0.00000000E+00
  0.00000000E+00  0.00000000E+00  0.00000000E+00
  0.00000000E+00  0.00000000E+00  0.00000000E+00
  0.00000000E+00  0.00000000E+00  0.00000000E+00
  0.00000000E+00  0.00000000E+00  0.00000000E+00
  0.00000000E+00  0.00000000E+00  0.00000000E+00
  0.00000000E+00  0.00000000E+00  0.00000000E+00
  0.00000000E+00  0.00000000E+00  0.00000000E+00
  0.00000000E+00  0.00000000E+00  0.00000000E+00
