EntryWithCollCode190921
 1.0000000000000000
     3.9978799999999999    0.0000000000000000    0.0000000000000000
     0.0000000000000000    3.9978799999999999    0.0000000000000000
     0.0000000000000000    0.0000000000000000    4.0645100000000003
   K  Nb   O
   1   1   3
Direct
  0.0000000000000000  0.0000000000000000  0.0000000000000000
  0.5000000000000000  0.5000000000000000  0.5171000000000000
  0.5000000000000000  0.5000000000000000  0.9740000000000000
  0.5000000000000000  0.0000000000000000  0.4791000000000000
  0.0000000000000000  0.5000000000000000  0.4791000000000000
