EntryWithCollCode9428
 1.0000000000000000
     5.5010000000000003    0.0000000000000000    0.0000000000000000
    -2.7504999999999988    4.7640057462181975    0.0000000000000000
     0.0000000000000000    0.0000000000000000   13.2170000000000005
  La  Cu   O
   6   6  18
Direct
  0.0000000000000000  0.0000000000000000  0.2500000000000000
  0.0000000000000000  0.0000000000000000  0.7500000000000000
  0.6666666666666666  0.3333333333333333  0.5833333333333334
  0.6666666666666666  0.3333333333333333  0.0833333333333333
  0.3333333333333333  0.6666666666666666  0.9166666666666666
  0.3333333333333333  0.6666666666666666  0.4166666666666666
  0.0000000000000000  0.0000000000000000  0.5000000000000000
  0.0000000000000000  0.0000000000000000  0.0000000000000000
  0.6666666666666666  0.3333333333333333  0.8333333333333334
  0.6666666666666666  0.3333333333333333  0.3333333333333333
  0.3333333333333333  0.6666666666666666  0.1666666666666667
  0.3333333333333333  0.6666666666666666  0.6666666666666666
  0.4640000000000000  0.0000000000000000  0.2500000000000000
  0.5360000000000000  0.5360000000000000  0.2500000000000000
  0.0000000000000000  0.4640000000000000  0.2500000000000000
  0.4640000000000000  0.4640000000000000  0.7500000000000000
  0.0000000000000000  0.5360000000000000  0.7500000000000000
  0.5360000000000000  0.0000000000000000  0.7500000000000000
  0.1306666666666667  0.3333333333333333  0.5833333333333334
  0.2026666666666665  0.8693333333333332  0.5833333333333334
  0.6666666666666666  0.7973333333333333  0.5833333333333334
  0.1306666666666667  0.7973333333333333  0.0833333333333333
  0.6666666666666666  0.8693333333333332  0.0833333333333333
  0.2026666666666666  0.3333333333333333  0.0833333333333333
  0.7973333333333334  0.6666666666666666  0.9166666666666666
  0.8693333333333333  0.2026666666666666  0.9166666666666666
  0.3333333333333333  0.1306666666666667  0.9166666666666666
  0.7973333333333334  0.1306666666666667  0.4166666666666666
  0.3333333333333333  0.2026666666666666  0.4166666666666666
  0.8693333333333333  0.6666666666666666  0.4166666666666666
