Cu  H                                   
   1.00000000000000     
     2.5738686835190334    0.0000000000000000    0.0000000000000000
     1.2869343417595167    2.2290356659326918    0.0000000000000000
     0.0000000000000000    0.0000000000000000   30.3046649395507117
   Cu   H 
     4     1
Direct
  0.9997061509557668  0.0005876980884665  0.3965669979843796
  0.3331862671571670  0.3336240919630313  0.4651396089716684
  0.6658290976325105  0.6683428276938983  0.5335944163136404
  0.0008007947236024  0.9983984105527952  0.6042158867792935
  0.4770893033007297  0.0458180196759059  0.6375028411809396
 
  0.00000000E+00  0.00000000E+00  0.00000000E+00
  0.00000000E+00  0.00000000E+00  0.00000000E+00
  0.00000000E+00  0.00000000E+00  0.00000000E+00
  0.00000000E+00  0.00000000E+00  0.00000000E+00
  0.00000000E+00  0.00000000E+00  0.00000000E+00
