Cu  H                                   
   1.00000000000000     
     2.5738686835190334    0.0000000000000000    0.0000000000000000
     1.2869343417595167    2.2290356659326918    0.0000000000000000
     0.0000000000000000    0.0000000000000000   30.3046649395507117
   Cu   H 
     4     1
Cartesian
      0.00000      0.00131     12.01783
      1.28693      0.74366     14.09590
      2.57387      1.48976     16.17040
      0.00000     -0.00357     18.31056
      1.28693      0.10213     19.31931
 
  0.00000000E+00  0.00000000E+00  0.00000000E+00
  0.00000000E+00  0.00000000E+00  0.00000000E+00
  0.00000000E+00  0.00000000E+00  0.00000000E+00
  0.00000000E+00  0.00000000E+00  0.00000000E+00
  0.00000000E+00  0.00000000E+00  0.00000000E+00
