Cu  H                                   
   1.00000000000000     
     2.5738686835190334    0.0000000000000000    0.0000000000000000
     1.2869343417595167    2.2290356659326918    0.0000000000000000
     0.0000000000000000    0.0000000000000000   30.3046649395507117
   Cu   H 
     4     1
Direct
  0.9997065644875605  0.0005868710248862  0.3965671370680752
  0.3331869531653879  0.3336260936692383  0.4651397130960362
  0.6658275706057140  0.6683448587885650  0.5335942646132565
  0.0008007310123688  0.9983985379752625  0.6042157217893376
  0.5004781807289760  0.9990436385420480  0.6375027436879535
 
  0.00000000E+00  0.00000000E+00  0.00000000E+00
  0.00000000E+00  0.00000000E+00  0.00000000E+00
  0.00000000E+00  0.00000000E+00  0.00000000E+00
  0.00000000E+00  0.00000000E+00  0.00000000E+00
  0.00000000E+00  0.00000000E+00  0.00000000E+00
