 O Sr Ti                                
   1.00000000000000     
     3.9468463416193540    0.0000000000000000    0.0000000000000000
     0.0000000000000000    3.9468463416193540    0.0000000000000000
     0.0000000000000000    0.0000000000000000   39.8139621956677416
   O    Sr   Ti
    12     4     4
Direct
  0.5000000000000000  0.5000000000000000  0.3265186201792929
  0.5000000000000000  0.0000000000000000  0.3760847286994959
  0.0000000000000000  0.5000000000000000  0.3760847286994959
  0.5000000000000000  0.5000000000000000  0.4256508372196990
  0.5000000000000000  0.0000000000000000  0.4752169457399020
  0.0000000000000000  0.5000000000000000  0.4752169457399020
  0.5000000000000000  0.5000000000000000  0.5247830542600980
  0.5000000000000000  0.0000000000000000  0.5743491627803010
  0.0000000000000000  0.5000000000000000  0.5743491627803010
  0.5000000000000000  0.5000000000000000  0.6239152713005041
  0.5000000000000000  0.0000000000000000  0.6734813798207071
  0.0000000000000000  0.5000000000000000  0.6734813798207071
  0.0000000000000000  0.0000000000000000  0.3265186201792929
  0.0000000000000000  0.0000000000000000  0.4256508372196990
  0.0000000000000000  0.0000000000000000  0.5247830542600980
  0.0000000000000000  0.0000000000000000  0.6239152713005041
  0.5000000000000000  0.5000000000000000  0.3760847286994959
  0.5000000000000000  0.5000000000000000  0.4752169457399020
  0.5000000000000000  0.5000000000000000  0.5743491627803010
  0.5000000000000000  0.5000000000000000  0.6734813798207071
 
  0.00000000E+00  0.00000000E+00  0.00000000E+00
  0.00000000E+00  0.00000000E+00  0.00000000E+00
  0.00000000E+00  0.00000000E+00  0.00000000E+00
  0.00000000E+00  0.00000000E+00  0.00000000E+00
  0.00000000E+00  0.00000000E+00  0.00000000E+00
  0.00000000E+00  0.00000000E+00  0.00000000E+00
  0.00000000E+00  0.00000000E+00  0.00000000E+00
  0.00000000E+00  0.00000000E+00  0.00000000E+00
  0.00000000E+00  0.00000000E+00  0.00000000E+00
  0.00000000E+00  0.00000000E+00  0.00000000E+00
  0.00000000E+00  0.00000000E+00  0.00000000E+00
  0.00000000E+00  0.00000000E+00  0.00000000E+00
  0.00000000E+00  0.00000000E+00  0.00000000E+00
  0.00000000E+00  0.00000000E+00  0.00000000E+00
  0.00000000E+00  0.00000000E+00  0.00000000E+00
  0.00000000E+00  0.00000000E+00  0.00000000E+00
  0.00000000E+00  0.00000000E+00  0.00000000E+00
  0.00000000E+00  0.00000000E+00  0.00000000E+00
  0.00000000E+00  0.00000000E+00  0.00000000E+00
  0.00000000E+00  0.00000000E+00  0.00000000E+00
