 O Sr Ti 
 1.0000000000000000
     3.9468463416193540    0.0000000000000000    0.0000000000000000
     0.0000000000000000    3.9468463416193540    0.0000000000000000
     0.0000000000000000    0.0000000000000000   39.8139621956677416
   O  Sr  Ti
  12   4   4
Direct
  0.5000000000000000  0.5000000000000000  0.3265186201792939
  0.5000000000000000  0.0000000000000000  0.3760847286994956
  0.0000000000000000  0.5000000000000000  0.3760847286994956
  0.5000000000000000  0.5000000000000000  0.4256508372196974
  0.5000000000000000  0.0000000000000000  0.4752169457398991
  0.0000000000000000  0.5000000000000000  0.4752169457398991
  0.5000000000000000  0.5000000000000000  0.5247830542601010
  0.5000000000000000  0.0000000000000000  0.5743491627803026
  0.0000000000000000  0.5000000000000000  0.5743491627803026
  0.5000000000000000  0.5000000000000000  0.6239152713005044
  0.5000000000000000  0.0000000000000000  0.6734813798207061
  0.0000000000000000  0.5000000000000000  0.6734813798207061
  0.0000000000000000  0.0000000000000000  0.3265186201792939
  0.0000000000000000  0.0000000000000000  0.4256508372196974
  0.0000000000000000  0.0000000000000000  0.5247830542601010
  0.0000000000000000  0.0000000000000000  0.6239152713005044
  0.5000000000000000  0.5000000000000000  0.3760847286994956
  0.5000000000000000  0.5000000000000000  0.4752169457398991
  0.5000000000000000  0.5000000000000000  0.5743491627803026
  0.5000000000000000  0.5000000000000000  0.6734813798207061
