Pt_sc                                   
   2.60000000000000     
     1.0108844814627209    0.0000000000000000   -0.0000000000000000
    -0.0000000000000000    1.0108844814627207    0.0000000000000000
    -0.0000000000000000    0.0000000000000000    1.0108844814627207
   Pt
     1
Direct
  0.0000000000000000 -0.0000000000000000  0.0000000000000000
 
  0.00000000E+00  0.00000000E+00  0.00000000E+00
