 O Sr Ti                                
   1.00000000000000     
     3.9468463416193540    0.0000000000000000    0.0000000000000000
     0.0000000000000000    3.9468463416193540    0.0000000000000000
     0.0000000000000000    0.0000000000000000   37.6545012205258018
   O    Sr   Ti
    21     7     7
Direct
  0.5000000000000000  0.5000000000000000  0.1593434995954581
  0.5000000000000000  0.0000000000000000  0.2117521919653882
  0.0000000000000000  0.5000000000000000  0.2117521919653882
  0.5000000000000000  0.5000000000000000  0.2641608843353183
  0.5000000000000000  0.0000000000000000  0.3165695767052483
  0.0000000000000000  0.5000000000000000  0.3165695767052483
  0.5000000000000000  0.5000000000000000  0.3689782690751784
  0.5000000000000000  0.0000000000000000  0.4213869614451085
  0.0000000000000000  0.5000000000000000  0.4213869614451085
  0.5000000000000000  0.5000000000000000  0.4737956538150385
  0.5000000000000000  0.0000000000000000  0.5262043461849615
  0.0000000000000000  0.5000000000000000  0.5262043461849615
  0.5000000000000000  0.5000000000000000  0.5786130385548915
  0.5000000000000000  0.0000000000000000  0.6310217309248216
  0.0000000000000000  0.5000000000000000  0.6310217309248216
  0.5000000000000000  0.5000000000000000  0.6834304232947517
  0.5000000000000000  0.0000000000000000  0.7358391156646817
  0.0000000000000000  0.5000000000000000  0.7358391156646817
  0.5000000000000000  0.5000000000000000  0.7882478080346118
  0.5000000000000000  0.0000000000000000  0.8406565004045419
  0.0000000000000000  0.5000000000000000  0.8406565004045419
  0.0000000000000000  0.0000000000000000  0.1593434995954581
  0.0000000000000000  0.0000000000000000  0.2641608843353183
  0.0000000000000000  0.0000000000000000  0.3689782690751784
  0.0000000000000000  0.0000000000000000  0.4737956538150385
  0.0000000000000000  0.0000000000000000  0.5786130385548915
  0.0000000000000000  0.0000000000000000  0.6834304232947517
  0.0000000000000000  0.0000000000000000  0.7882478080346118
  0.5000000000000000  0.5000000000000000  0.2117521919653882
  0.5000000000000000  0.5000000000000000  0.3165695767052483
  0.5000000000000000  0.5000000000000000  0.4213869614451085
  0.5000000000000000  0.5000000000000000  0.5262043461849615
  0.5000000000000000  0.5000000000000000  0.6310217309248216
  0.5000000000000000  0.5000000000000000  0.7358391156646817
  0.5000000000000000  0.5000000000000000  0.8406565004045419
 
  0.00000000E+00  0.00000000E+00  0.00000000E+00
  0.00000000E+00  0.00000000E+00  0.00000000E+00
  0.00000000E+00  0.00000000E+00  0.00000000E+00
  0.00000000E+00  0.00000000E+00  0.00000000E+00
  0.00000000E+00  0.00000000E+00  0.00000000E+00
  0.00000000E+00  0.00000000E+00  0.00000000E+00
  0.00000000E+00  0.00000000E+00  0.00000000E+00
  0.00000000E+00  0.00000000E+00  0.00000000E+00
  0.00000000E+00  0.00000000E+00  0.00000000E+00
  0.00000000E+00  0.00000000E+00  0.00000000E+00
  0.00000000E+00  0.00000000E+00  0.00000000E+00
  0.00000000E+00  0.00000000E+00  0.00000000E+00
  0.00000000E+00  0.00000000E+00  0.00000000E+00
  0.00000000E+00  0.00000000E+00  0.00000000E+00
  0.00000000E+00  0.00000000E+00  0.00000000E+00
  0.00000000E+00  0.00000000E+00  0.00000000E+00
  0.00000000E+00  0.00000000E+00  0.00000000E+00
  0.00000000E+00  0.00000000E+00  0.00000000E+00
  0.00000000E+00  0.00000000E+00  0.00000000E+00
  0.00000000E+00  0.00000000E+00  0.00000000E+00
  0.00000000E+00  0.00000000E+00  0.00000000E+00
  0.00000000E+00  0.00000000E+00  0.00000000E+00
  0.00000000E+00  0.00000000E+00  0.00000000E+00
  0.00000000E+00  0.00000000E+00  0.00000000E+00
  0.00000000E+00  0.00000000E+00  0.00000000E+00
  0.00000000E+00  0.00000000E+00  0.00000000E+00
  0.00000000E+00  0.00000000E+00  0.00000000E+00
  0.00000000E+00  0.00000000E+00  0.00000000E+00
  0.00000000E+00  0.00000000E+00  0.00000000E+00
  0.00000000E+00  0.00000000E+00  0.00000000E+00
  0.00000000E+00  0.00000000E+00  0.00000000E+00
  0.00000000E+00  0.00000000E+00  0.00000000E+00
  0.00000000E+00  0.00000000E+00  0.00000000E+00
  0.00000000E+00  0.00000000E+00  0.00000000E+00
  0.00000000E+00  0.00000000E+00  0.00000000E+00
