 O Sr Ti 
 1.0000000000000000
     3.9468463416193540    0.0000000000000000    0.0000000000000000
     0.0000000000000000    3.9468463416193540    0.0000000000000000
     0.0000000000000000    0.0000000000000000   37.6545012205258018
   O  Sr  Ti
  21   7   7
Direct
  0.5000000000000000  0.5000000000000000  0.1593434995954573
  0.5000000000000000  0.0000000000000000  0.2117521919653869
  0.0000000000000000  0.5000000000000000  0.2117521919653869
  0.5000000000000000  0.5000000000000000  0.2641608843353166
  0.5000000000000000  0.0000000000000000  0.3165695767052462
  0.0000000000000000  0.5000000000000000  0.3165695767052462
  0.5000000000000000  0.5000000000000000  0.3689782690751759
  0.5000000000000000  0.0000000000000000  0.4213869614451056
  0.0000000000000000  0.5000000000000000  0.4213869614451056
  0.5000000000000000  0.5000000000000000  0.4737956538150351
  0.5000000000000000  0.0000000000000000  0.5262043461849648
  0.0000000000000000  0.5000000000000000  0.5262043461849648
  0.5000000000000000  0.5000000000000000  0.5786130385548944
  0.5000000000000000  0.0000000000000000  0.6310217309248242
  0.0000000000000000  0.5000000000000000  0.6310217309248242
  0.5000000000000000  0.5000000000000000  0.6834304232947538
  0.5000000000000000  0.0000000000000000  0.7358391156646834
  0.0000000000000000  0.5000000000000000  0.7358391156646834
  0.5000000000000000  0.5000000000000000  0.7882478080346130
  0.5000000000000000  0.0000000000000000  0.8406565004045427
  0.0000000000000000  0.5000000000000000  0.8406565004045427
  0.0000000000000000  0.0000000000000000  0.1593434995954573
  0.0000000000000000  0.0000000000000000  0.2641608843353166
  0.0000000000000000  0.0000000000000000  0.3689782690751759
  0.0000000000000000  0.0000000000000000  0.4737956538150351
  0.0000000000000000  0.0000000000000000  0.5786130385548944
  0.0000000000000000  0.0000000000000000  0.6834304232947538
  0.0000000000000000  0.0000000000000000  0.7882478080346130
  0.5000000000000000  0.5000000000000000  0.2117521919653869
  0.5000000000000000  0.5000000000000000  0.3165695767052462
  0.5000000000000000  0.5000000000000000  0.4213869614451056
  0.5000000000000000  0.5000000000000000  0.5262043461849648
  0.5000000000000000  0.5000000000000000  0.6310217309248242
  0.5000000000000000  0.5000000000000000  0.7358391156646834
  0.5000000000000000  0.5000000000000000  0.8406565004045427
