Cu  H 
 1.0000000000000000
     2.5738686835190334    0.0000000000000000    0.0000000000000000
     1.2869343417595167    2.2290356659326918    0.0000000000000000
     0.0000000000000000    0.0000000000000000   30.3046649395507117
  Cu   H
   4   1
Direct
  0.0000000000000000  0.0000000000000000  0.3959786397221889
  0.3333333333333334  0.3333333333333333  0.4653262132407296
  0.6666666666666667  0.6666666666666666  0.5346737867592705
  0.0000000000000000  0.0000000000000000  0.6040213602778112
  0.0000000000000000  0.0000000000000000  0.6634181562361395
