Si_bulk_icsd_60385                      
   1.00000000000000     
    20.2310100000000013    0.0000000000000000    0.0000000000000000
     0.0000000000000000   20.2310100000000013    0.0000000000000000
     0.0000000000000000    0.0000000000000000   20.2310100000000013
   Si   H 
    14    18
Direct
 -0.0029555838599471 -0.0029558606788985 -0.0029563971722799
  0.1342051604467216  0.1342054642190756  0.0067187295519854
  0.0647196741796288  0.0647198094833051  0.0647203089414861
  0.2036940591964754  0.2036942195322379  0.0647195469125479
  0.0067191030073527  0.1342052874277065  0.1342057847694636
  0.1342054681803109  0.0067193586066905  0.1342059589982156
  0.0647200240728803  0.2036941402022820  0.2036943000325467
  0.2036940478378181  0.0647201669675323  0.2036939537755270
  0.1341649039131421  0.1341648188672108  0.2617057339101629
  0.1341655586850951  0.2617061706016602  0.1341651478859417
 -0.0029849174725501  0.2713826607419869  0.2713830014980700
  0.2617056965206189  0.1341653804222218  0.1341655082758047
  0.2713835821129406 -0.0029850131504968  0.2713830491938598
  0.2713827906049904  0.2713816379745193 -0.0029856317667599
  0.0105886231405201  0.0105885755510476  0.9253783136351192
  0.1342486240765100  0.1342487209953991  0.9320943581747341
  0.2578925885067559  0.2578924282318265  0.9254049267199806
  0.0106039368849742  0.2578797735642676  0.3430740970856431
  0.1342966880872633  0.1342966468931704  0.3363285841372586
  0.2578794863868941  0.0106039852427622  0.3430750462347362
  0.9253780274557801  0.0105884853411096  0.0105880789110765
  0.9320938541874990  0.1342486750953532  0.1342485948363587
  0.9254049013020418  0.2578927287372022  0.2578923182029547
  0.3363280381131457  0.1342968204360536  0.1342965768253831
  0.3430741444316342  0.0106039802673051  0.2578797568906604
  0.3430746490127664  0.2578792839839381  0.0106039779478077
  0.0105884344698523  0.9253782336805598  0.0105880531977480
  0.1342486082898360  0.9320936715896165  0.1342485410055205
  0.2578925494701234  0.9254049509029719  0.2578929006863034
  0.1342966322902488  0.3363278545838424  0.1342966275690580
  0.0106040561459488  0.3430749129018745  0.2578791776964652
  0.2578794650235028  0.3430749054854373  0.0106039501373940
 
  0.00000000E+00  0.00000000E+00  0.00000000E+00
  0.00000000E+00  0.00000000E+00  0.00000000E+00
  0.00000000E+00  0.00000000E+00  0.00000000E+00
  0.00000000E+00  0.00000000E+00  0.00000000E+00
  0.00000000E+00  0.00000000E+00  0.00000000E+00
  0.00000000E+00  0.00000000E+00  0.00000000E+00
  0.00000000E+00  0.00000000E+00  0.00000000E+00
  0.00000000E+00  0.00000000E+00  0.00000000E+00
  0.00000000E+00  0.00000000E+00  0.00000000E+00
  0.00000000E+00  0.00000000E+00  0.00000000E+00
  0.00000000E+00  0.00000000E+00  0.00000000E+00
  0.00000000E+00  0.00000000E+00  0.00000000E+00
  0.00000000E+00  0.00000000E+00  0.00000000E+00
  0.00000000E+00  0.00000000E+00  0.00000000E+00
  0.00000000E+00  0.00000000E+00  0.00000000E+00
  0.00000000E+00  0.00000000E+00  0.00000000E+00
  0.00000000E+00  0.00000000E+00  0.00000000E+00
  0.00000000E+00  0.00000000E+00  0.00000000E+00
  0.00000000E+00  0.00000000E+00  0.00000000E+00
  0.00000000E+00  0.00000000E+00  0.00000000E+00
  0.00000000E+00  0.00000000E+00  0.00000000E+00
  0.00000000E+00  0.00000000E+00  0.00000000E+00
  0.00000000E+00  0.00000000E+00  0.00000000E+00
  0.00000000E+00  0.00000000E+00  0.00000000E+00
  0.00000000E+00  0.00000000E+00  0.00000000E+00
  0.00000000E+00  0.00000000E+00  0.00000000E+00
  0.00000000E+00  0.00000000E+00  0.00000000E+00
  0.00000000E+00  0.00000000E+00  0.00000000E+00
  0.00000000E+00  0.00000000E+00  0.00000000E+00
  0.00000000E+00  0.00000000E+00  0.00000000E+00
  0.00000000E+00  0.00000000E+00  0.00000000E+00
  0.00000000E+00  0.00000000E+00  0.00000000E+00
