ICSD_CollCode56718
 1.0000000000000000
     5.5069999999999997    0.0000000000000000    0.0000000000000000
     0.0000000000000000    5.5069999999999997    0.0000000000000000
     0.0000000000000000    0.0000000000000000    7.7960000000000003
  Sr  Ti   O
   4   4  12
Direct
  0.5000000000000000  0.0000000000000000  0.2500000000000000
  0.5000000000000000  0.0000000000000000  0.7500000000000000
  0.0000000000000000  0.5000000000000000  0.2500000000000000
  0.0000000000000000  0.5000000000000000  0.7500000000000000
  0.0000000000000000  0.0000000000000000  0.5000000000000000
  0.0000000000000000  0.0000000000000000  0.0000000000000000
  0.5000000000000000  0.5000000000000000  0.0000000000000000
  0.5000000000000000  0.5000000000000000  0.5000000000000000
  0.0000000000000000  0.0000000000000000  0.2500000000000000
  0.0000000000000000  0.0000000000000000  0.7500000000000000
  0.5000000000000000  0.5000000000000000  0.7500000000000000
  0.5000000000000000  0.5000000000000000  0.2500000000000000
  0.7412000000000000  0.2412000000000000  0.5000000000000000
  0.2588000000000000  0.7588000000000000  0.5000000000000000
  0.2588000000000000  0.2412000000000000  0.0000000000000000
  0.7412000000000000  0.7588000000000000  0.0000000000000000
  0.2412000000000000  0.2588000000000000  0.5000000000000000
  0.7588000000000000  0.7412000000000000  0.5000000000000000
  0.2412000000000000  0.7412000000000000  0.0000000000000000
  0.7588000000000000  0.2588000000000000  0.0000000000000000
