Si_bulk_icsd_60385                      
   1.00000000000000     
    20.2310100000000013    0.0000000000000000    0.0000000000000000
     0.0000000000000000   20.2310100000000013    0.0000000000000000
     0.0000000000000000    0.0000000000000000   20.2310100000000013
   Si   H 
    14    18
Direct
  0.0000000000000000  0.0000000000000000  0.0000000000000000
  0.1342246383151391  0.1342246383151391  0.0000000000000000
  0.0671123191575731  0.0671123191575731  0.0671123191575731
  0.2013374517634077  0.2013374517634077  0.0671123191575731
  0.0000000000000000  0.1342246383151391  0.1342246383151391
  0.1342246383151391  0.0000000000000000  0.1342246383151391
  0.0671123191575731  0.2013374517634077  0.2013374517634077
  0.2013374517634077  0.0671123191575731  0.2013374517634077
  0.1342246383151391  0.1342246383151391  0.2684497709209808
  0.1342246383151391  0.2684497709209808  0.1342246383151391
  0.0000000000000000  0.2684497709209808  0.2684497709209808
  0.2684497709209808  0.1342246383151391  0.1342246383151391
  0.2684497709209808  0.0000000000000000  0.2684497709209808
  0.2684497709209808  0.2684497709209808  0.0000000000000000
  0.0000000000000000  0.0000000000000000  0.9307988083639884
  0.1342246383151391  0.1342246383151391  0.9307988083639884
  0.2684497709209808  0.2684497709209808  0.9307988083639884
  0.0000000000000000  0.2684497709209808  0.3376504682662897
  0.1342246383151391  0.1342246383151391  0.3376504682662897
  0.2684497709209808  0.0000000000000000  0.3376504682662897
  0.9307988083639884  0.0000000000000000  0.0000000000000000
  0.9307988083639884  0.1342246383151391  0.1342246383151391
  0.9307988083639884  0.2684497709209808  0.2684497709209808
  0.3376504682662897  0.1342246383151391  0.1342246383151391
  0.3376504682662897  0.0000000000000000  0.2684497709209808
  0.3376504682662897  0.2684497709209808  0.0000000000000000
  0.0000000000000000  0.9307988083639884  0.0000000000000000
  0.1342246383151391  0.9307988083639884  0.1342246383151391
  0.2684497709209808  0.9307988083639884  0.2684497709209808
  0.1342246383151391  0.3376504682662897  0.1342246383151391
  0.0000000000000000  0.3376504682662897  0.2684497709209808
  0.2684497709209808  0.3376504682662897  0.0000000000000000
 
  0.00000000E+00  0.00000000E+00  0.00000000E+00
  0.00000000E+00  0.00000000E+00  0.00000000E+00
  0.00000000E+00  0.00000000E+00  0.00000000E+00
  0.00000000E+00  0.00000000E+00  0.00000000E+00
  0.00000000E+00  0.00000000E+00  0.00000000E+00
  0.00000000E+00  0.00000000E+00  0.00000000E+00
  0.00000000E+00  0.00000000E+00  0.00000000E+00
  0.00000000E+00  0.00000000E+00  0.00000000E+00
  0.00000000E+00  0.00000000E+00  0.00000000E+00
  0.00000000E+00  0.00000000E+00  0.00000000E+00
  0.00000000E+00  0.00000000E+00  0.00000000E+00
  0.00000000E+00  0.00000000E+00  0.00000000E+00
  0.00000000E+00  0.00000000E+00  0.00000000E+00
  0.00000000E+00  0.00000000E+00  0.00000000E+00
  0.00000000E+00  0.00000000E+00  0.00000000E+00
  0.00000000E+00  0.00000000E+00  0.00000000E+00
  0.00000000E+00  0.00000000E+00  0.00000000E+00
  0.00000000E+00  0.00000000E+00  0.00000000E+00
  0.00000000E+00  0.00000000E+00  0.00000000E+00
  0.00000000E+00  0.00000000E+00  0.00000000E+00
  0.00000000E+00  0.00000000E+00  0.00000000E+00
  0.00000000E+00  0.00000000E+00  0.00000000E+00
  0.00000000E+00  0.00000000E+00  0.00000000E+00
  0.00000000E+00  0.00000000E+00  0.00000000E+00
  0.00000000E+00  0.00000000E+00  0.00000000E+00
  0.00000000E+00  0.00000000E+00  0.00000000E+00
  0.00000000E+00  0.00000000E+00  0.00000000E+00
  0.00000000E+00  0.00000000E+00  0.00000000E+00
  0.00000000E+00  0.00000000E+00  0.00000000E+00
  0.00000000E+00  0.00000000E+00  0.00000000E+00
  0.00000000E+00  0.00000000E+00  0.00000000E+00
  0.00000000E+00  0.00000000E+00  0.00000000E+00
