Si_bulk_icsd_60385                      
    1.0     
     20.23101    0.0        0.0
     0.0        20.23101    0.0
     0.0        0.0        20.23101
   Si H
   14 18
Cartesian
      0.00000      0.00000      0.00000
      2.71550      2.71550      0.00000
      1.35775      1.35775      1.35775
      4.07326      4.07326      1.35775
      0.00000      2.71550      2.71550
      2.71550      0.00000      2.71550
      1.35775      4.07326      4.07326
      4.07326      1.35775      4.07326
      2.71550      2.71550      5.43101
      2.71550      5.43101      2.71550
      0.00000      5.43101      5.43101
      5.43101      2.71550      2.71550
      5.43101      0.00000      5.43101
      5.43101      5.43101      0.00000
      0.00000      0.00000      18.8310
      2.71550      2.71550      18.8310
      5.43101      5.43101      18.8310
      0.00000      5.43101      6.83101
      2.71550      2.71550      6.83101
      5.43101      0.00000      6.83101
      18.8310      0.00000      0.00000
      18.8310      2.71550      2.71550
      18.8310      5.43101      5.43101
      6.83101      2.71550      2.71550
      6.83101      0.00000      5.43101
      6.83101      5.43101      0.00000
      0.00000      18.8310      0.00000
      2.71550      18.8310      2.71550
      5.43101      18.8310      5.43101
      2.71550      6.83101      2.71550
      0.00000      6.83101      5.43101
      5.43101      6.83101      0.00000
