Cu  H                                   
   1.00000000000000     
     2.5738686835190334    0.0000000000000000    0.0000000000000000
     1.2869343417595167    2.2290356659326918    0.0000000000000000
     0.0000000000000000    0.0000000000000000   30.3046649395507117
   Cu   H 
     4     1
Direct
  0.0000000000000000  0.0000000000000000  0.3964402848196684
  0.3333320701180469  0.3333324860412716  0.4651518183130605
  0.6666680254381916  0.6666649720825362  0.5339161489584114
  0.0000000000000000  0.0000000000000000  0.6067438804117202
  0.3333320701180469  0.3333324860412716  0.6314674667471749
 
  0.00000000E+00  0.00000000E+00  0.00000000E+00
  0.00000000E+00  0.00000000E+00  0.00000000E+00
  0.00000000E+00  0.00000000E+00  0.00000000E+00
  0.00000000E+00  0.00000000E+00  0.00000000E+00
  0.00000000E+00  0.00000000E+00  0.00000000E+00
