COF1
 1.0000000000000000
    15.6529000000000007    0.0000000000000000    0.0000000000000000
    -7.8264499999999968   13.5558090428974420    0.0000000000000000
     0.0000000000000000    0.0000000000000000    6.7004999999999999
   B   O   C   H
  12  12  36  24
Direct
  0.0577200000000000  0.1154300000000000  0.2500000000000000
  0.8845700000000000  0.9422900000000000  0.2500000000000000
  0.0577100000000000  0.9422800000000000  0.2500000000000000
  0.9422800000000000  0.8845700000000000  0.7500000000000001
  0.1154300000000000  0.0577100000000000  0.7500000000000001
  0.9422900000000000  0.0577200000000000  0.7500000000000001
  0.4446599999999999  0.7223299999999999  0.2500000000000000
  0.2776700000000000  0.7223299999999999  0.2500000000000000
  0.2776700000000000  0.5553399999999999  0.2500000000000000
  0.5553399999999999  0.2776700000000000  0.7500000000000001
  0.7223300000000000  0.2776700000000000  0.7500000000000001
  0.7223299999999999  0.4446600000000000  0.7500000000000001
  0.1113300000000000  0.0556700000000000  0.2500000000000000
  0.9443300000000000  0.0556600000000000  0.2500000000000000
  0.9443400000000000  0.8886700000000000  0.2500000000000000
  0.8886700000000000  0.9443300000000000  0.7500000000000001
  0.0556700000000000  0.9443400000000000  0.7500000000000001
  0.0556600000000000  0.1113300000000000  0.7500000000000001
  0.3890000000000000  0.7780000000000000  0.2500000000000000
  0.2220000000000000  0.6110000000000000  0.2500000000000000
  0.3890000000000000  0.6110000000000000  0.2500000000000000
  0.6110000000000000  0.2220000000000000  0.7500000000000001
  0.7780000000000000  0.3890000000000000  0.7500000000000001
  0.6110000000000000  0.3890000000000000  0.7500000000000001
  0.1118400000000000  0.3836100000000000  0.2500000000000000
  0.6163900000000000  0.7282299999999999  0.2500000000000000
  0.2717700000000000  0.8881600000000001  0.2500000000000000
  0.8881600000000001  0.6163900000000000  0.7500000000000001
  0.3836100000000000  0.2717700000000000  0.7500000000000001
  0.7282299999999999  0.1118400000000000  0.7500000000000001
  0.3836100000000000  0.1118400000000000  0.7500000000000001
  0.7282299999999999  0.6163900000000000  0.7500000000000001
  0.8881600000000001  0.2717700000000000  0.7500000000000001
  0.6163900000000000  0.8881600000000001  0.2500000000000000
  0.2717700000000000  0.3836100000000000  0.2500000000000000
  0.1118400000000000  0.7282299999999999  0.2500000000000000
  0.2186400000000000  0.4372800000000000  0.2500000000000000
  0.5627200000000000  0.7813600000000001  0.2500000000000000
  0.2186400000000000  0.7813600000000001  0.2500000000000000
  0.7813600000000001  0.5627200000000000  0.7500000000000001
  0.4372800000000000  0.2186400000000000  0.7500000000000001
  0.7813600000000001  0.2186400000000000  0.7500000000000001
  0.2183700000000000  0.2768500000000000  0.2500000000000000
  0.7231500000000000  0.9415200000000000  0.2500000000000000
  0.0584800000000000  0.7816300000000000  0.2500000000000000
  0.7816300000000000  0.7231500000000001  0.7500000000000001
  0.2768500000000000  0.0584800000000000  0.7500000000000001
  0.9415200000000000  0.2183700000000000  0.7500000000000001
  0.2768500000000000  0.2183700000000000  0.7500000000000001
  0.9415200000000001  0.7231500000000001  0.7500000000000001
  0.7816300000000000  0.0584800000000000  0.7500000000000001
  0.7231500000000000  0.7816300000000000  0.2500000000000000
  0.0584800000000000  0.2768500000000000  0.2500000000000000
  0.2183700000000000  0.9415200000000000  0.2500000000000000
  0.1103000000000001  0.8897000000000002  0.2500000000000000
  0.1103000000000000  0.2205999999999999  0.2500000000000000
  0.7794000000000002  0.8897000000000002  0.2500000000000000
  0.8897000000000000  0.1103000000000000  0.7500000000000001
  0.8897000000000000  0.7794000000000001  0.7500000000000001
  0.2205999999999999  0.1103000000000000  0.7500000000000001
  0.5770300000000000  0.9277300000000001  0.2500000000000000
  0.0722700000000000  0.6493000000000001  0.2500000000000000
  0.3507000000000000  0.4229700000000000  0.2500000000000000
  0.4229700000000000  0.0722699999999999  0.7500000000000001
  0.9277300000000001  0.3507000000000000  0.7500000000000001
  0.6493000000000000  0.5770300000000000  0.7500000000000001
  0.9277300000000001  0.5770300000000000  0.7500000000000001
  0.6493000000000000  0.0722699999999999  0.7500000000000001
  0.4229700000000000  0.3507000000000000  0.7500000000000001
  0.0722699999999999  0.4229700000000000  0.2500000000000000
  0.3507000000000000  0.9277300000000001  0.2500000000000000
  0.5770300000000000  0.6493000000000001  0.2500000000000000
  0.0204500000000001  0.7618100000000000  0.7500000000000001
  0.2381900000000000  0.2586400000000001  0.7500000000000001
  0.7413599999999999  0.9795499999999999  0.7500000000000001
  0.9795499999999999  0.2381900000000000  0.2500000000000000
  0.7618100000000000  0.7413599999999999  0.2500000000000000
  0.2586400000000001  0.0204500000000001  0.2500000000000000
  0.7618100000000000  0.0204500000000001  0.2500000000000000
  0.2586400000000001  0.2381900000000000  0.2500000000000000
  0.9795499999999999  0.7413599999999999  0.2500000000000000
  0.2381900000000000  0.9795499999999999  0.7500000000000001
  0.7413599999999999  0.7618100000000000  0.7500000000000001
  0.0204500000000001  0.2586400000000001  0.7500000000000001
