Pt_fcc
4.1
1.0	0.0	0.0
0.0	1.0	0.0
0.0	0.0	1.0
Pt
4
Direct
0.0	0.0	0.0
0.0	0.5	0.5
0.5	0.0	0.5
0.5	0.5	0.0
